*NODE
1, 0., 0., 0.
2, 0., 0., 150.
3, 30., 0., 0.
4, 30., 0., 150.
5, 30., 30., 0.
6, 30., 30., 150.
7, 0., 30., 0.
8, 0., 30., 150.
9, 0., 0., 8.29741875070608
10, 0., 0., 17.1149780956347
11, 0., 0., 25.6250027737473
12, 0., 0., 36.4559617556341
13, 0., 0., 45.0000030510128
14, 0., 0., 56.9098530510128
15, 0., 0., 66.1803476465128
16, 0., 0., 76.1803476465128
17, 0., 0., 85.0000030510128
18, 0., 0., 96.9098530510128
19, 0., 0., 105.000003051013
20, 0., 0., 116.909853051013
21, 0., 0., 125.000003051013
22, 0., 0., 135.547131962721
23, 0., 0., 143.047129632483
24, 5.76021043854455, 0., 0.
25, 11.4405790807053, 0., 0.
26, 22.4677232058806, 0., 0.
27, 30., 0., 8.00721771019075
28, 30., 0., 14.4528739167311
29, 30., 0., 25.7295084555128
30, 30., 0., 34.3237154600322
31, 30., 0., 45.0000030510128
32, 30., 0., 55.0000030510128
33, 30., 0., 65.0000030510128
34, 30., 0., 75.0000030510128
35, 30., 0., 85.0000030510128
36, 30., 0., 95.0000030510128
37, 30., 0., 105.000003051013
38, 30., 0., 114.270497646513
39, 30., 0., 124.217279832993
40, 30., 0., 134.062502322781
41, 30., 0., 143.125001594549
42, 5.51179761234336, 0., 150.
43, 12.0156771019975, 0., 150.
44, 21.8359375690326, 0., 150.
45, 30., 6.93476457871275, 0.
46, 30., 15.6353656331058, 0.
47, 30., 24.2059410081818, 0.
48, 30., 30., 6.06761524667362
49, 30., 30., 15.0000030510128
50, 30., 30., 24.2704976465128
51, 30., 30., 35.0000030510128
52, 30., 30., 45.6762906419933
53, 30., 30., 54.2704976465128
54, 30., 30., 65.6762906419933
55, 30., 30., 74.2704976465128
56, 30., 30., 85.0000030510128
57, 30., 30., 95.0000030510128
58, 30., 30., 105.000003051013
59, 30., 30., 115.000003051013
60, 30., 30., 126.180347646513
61, 30., 30., 134.356604422672
62, 30., 30., 143.750002080037
63, 30., 7.34375008976841, 150.
64, 30., 15.8593751279161, 150.
65, 30., 24.4015860237781, 150.
66, 24.7853469420688, 30., 0.
67, 13.9111295213211, 30., 0.
68, 4.04507516079418, 30., 0.
69, 0., 30., 6.76641074217804
70, 0., 30., 13.3288841951057
71, 0., 30., 26.1803476465128
72, 0., 30., 35.0000030510128
73, 0., 30., 44.2704976465128
74, 0., 30., 55.0000030510128
75, 0., 30., 65.7295084555127
76, 0., 30., 75.0000030510128
77, 0., 30., 85.0000030510128
78, 0., 30., 95.0000030510128
79, 0., 30., 105.000003051013
80, 0., 30., 115.000003051013
81, 0., 30., 125.729508455513
82, 0., 30., 135.000003051013
83, 0., 30., 142.500001109061
84, 23.1096442867441, 30., 150.
85, 13.6910888510905, 30., 150.
86, 5.00000018998981, 30., 150.
87, 0., 23.9323875741453, 0.
88, 0., 14.8437501721339, 0.
89, 0., 6.25000014284687, 0.
90, 0., 21.9528710478925, 150.
91, 0., 15.0000001899898, 150.
92, 0., 8.04712915595713, 150.
93, 7.88197018998981, 0., 6.19817457261197
94, 16.0000001899898, 0., 14.2125969076784
95, 6.36939861507162, 0., 17.2040583158474
96, 16.3796074617052, 0., 4.79214288256499
97, 22.8419561073214, 0., 7.05462065388269
98, 24.7699742344002, 0., 15.3859547943359
99, 22.3959012708898, 0., 24.4489131711784
100, 25.6457656807616, 0., 34.9193606623725
101, 23.6180301899898, 0., 44.7698003845144
102, 25.6874323474282, 0., 54.8563236397676
103, 23.5522184753822, 0., 64.1580960354842
104, 25.6666667616616, 0., 74.8633712441111
105, 23.7639312708898, 0., 84.8563109736464
106, 25.7639311758949, 0., 94.8853894505815
107, 23.5893206961849, 0., 104.256048456829
108, 25.3612011023996, 0., 114.803346121765
109, 23.0000001899898, 0., 124.692121617474
110, 25.762982539841, 0., 133.349026395989
111, 21.596448846219, 0., 142.107840479749
112, 14.6236378079465, 0., 143.145904131913
113, 7.1782941594922, 0., 143.873535262914
114, 6.60584869033927, 0., 136.090187426176
115, 16.0000001899898, 0., 134.06312617953
116, 13.7933724509716, 0., 124.385451787379
117, 7.62027113395522, 0., 125.555118897501
118, 6.64912252969079, 0., 117.099091875444
119, 16.5397137740675, 0., 113.703170583551
120, 14.303700791846, 0., 103.9527901249
121, 7.8540991090898, 0., 106.232646388055
122, 7.16235610208792, 0., 96.6850020006206
123, 16.3251651661824, 0., 94.0802609761481
124, 13.9821545186264, 0., 84.6296458408277
125, 7.86803018998981, 0., 86.0225387142103
126, 6.77901935487843, 0., 77.3349713943364
127, 16.0000001899898, 0., 74.3305861578219
128, 14.453493189993, 0., 64.1459041319128
129, 7.76393127088981, 0., 65.8265018826931
130, 6.82927529163709, 0., 56.9178889757959
131, 16.6034715128623, 0., 53.8424569786834
132, 14.168474876925, 0., 44.8819730510128
133, 7.00180150036317, 0., 45.1788191311832
134, 7.04591899279768, 0., 36.6303546132304
135, 15.3220615672641, 0., 33.6939390918438
136, 13.2316908164319, 0., 23.9153591175979
137, 6.8203790897479, 0., 25.5982967634443
138, 30., 6.69775404868182, 7.22054137098297
139, 30., 17.0679207892075, 17.5582081355676
140, 30., 14.6551185213087, 8.85410197011275
141, 30., 7.51895252238543, 15.4423948451074
142, 30., 6.73406092785594, 25.4978086967969
143, 30., 14.9416712941766, 35.5127130100059
144, 30., 14.4480972443903, 27.3390027368482
145, 30., 7.35409910908981, 35.0887482365241
146, 30., 7.00000018998981, 45.0277918911588
147, 30., 15.6255312490444, 55.0182613028374
148, 30., 15.5534461686673, 45.0583686309681
149, 30., 7.73725496555929, 55.0084116738926
150, 30., 7.00000018998981, 65.0009323294218
151, 30., 15.5498525637414, 75.6184929683525
152, 30., 15.8378219304359, 65.7656503814829
153, 30., 7.35998546845076, 75.0001192108139
154, 30., 6.42300195757257, 84.3819941859238
155, 30., 15.5497612446297, 95.1432636752063
156, 30., 15.8844947867527, 85.8541092301003
157, 30., 7.61803018998981, 94.9952734611305
158, 30., 6.42125102773715, 104.130715691461
159, 30., 15.0000001899898, 115.000003051013
160, 30., 15.9142693738306, 105.843532883299
161, 30., 7.47213251591843, 114.850139048458
162, 30., 6.70181313496173, 123.824294506292
163, 30., 15.3938033647406, 134.500003051013
164, 30., 14.0205434822511, 123.546652363423
165, 30., 7.38197018998981, 134.329915747931
166, 30., 7.33268239375037, 142.623930791797
167, 30., 15.1328803761433, 143.040077514402
168, 30., 25.2337756091208, 144.000003051013
169, 30., 24.1459012708898, 135.548772534256
170, 30., 23.5374092561816, 126.063319552106
171, 30., 23.0000001899898, 115.057505345452
172, 30., 25.1389311758949, 105.015170911919
173, 30., 22.7639312708898, 95.1930727924982
174, 30., 24.9451211346825, 85.000003339208
175, 30., 23.0000001899898, 75.0001563580123
176, 30., 24.9028034283282, 65.0700366206015
177, 30., 22.8540991090898, 54.9640390096893
178, 30., 25.3511973369916, 44.9801955409626
179, 30., 22.7360691090898, 35.1357371806798
180, 30., 23.6722170003667, 24.6638157624529
181, 30., 23.5139312708898, 14.4585338785454
182, 30., 23.3175281069808, 6.07910925727914
183, 23.3665269927574, 30., 6.75000305101275
184, 23.0518959181854, 30., 15.9558714803356
185, 22.7774908061615, 30., 24.5008095143884
186, 22.8540991090898, 30., 34.9636576543655
187, 22.4885390696908, 30., 45.0103360980534
188, 22.6180301899898, 30., 54.988180752181
189, 22.2847645300084, 30., 65.0372049119397
190, 22.4721325159184, 30., 75.1846217093478
191, 22.0487011231797, 30., 84.9999981930944
192, 22.7639312708898, 30., 95.0155680529427
193, 22.2278526364567, 30., 104.994733267303
194, 22.7170785568212, 30., 115.013124439891
195, 22.8274045539216, 30., 125.245667525516
196, 23.074359355145, 30., 134.347240127306
197, 22.6577237614759, 30., 142.525256881682
198, 14.200943824656, 30., 143.500003051013
199, 7.19239223851813, 30., 144.413365906593
200, 5.19617098519056, 30., 135.349973151447
201, 15.173460058186, 30., 132.741318290926
202, 14.0561978375228, 30., 124.006078052001
203, 6.64590127088981, 30., 124.976035580225
204, 5.09198842634918, 30., 115.000257029215
205, 13.9617801781154, 30., 114.853594984177
206, 15.0000001899898, 30., 105.000003051013
207, 7.3819701899898, 30., 104.994030010803
208, 4.80210898190473, 30., 94.9988737037471
209, 14.367621696369, 30., 95.0000205947183
210, 14.6499369197411, 30., 84.6180330510128
211, 7.52786786406118, 30., 85.0267857651886
212, 5.0382367294714, 30., 75.2398889654048
213, 14.2894966870921, 30., 75.0000114083839
214, 14.8048323308866, 30., 64.7639341319127
215, 6.85409910908981, 30., 65.0158653105622
216, 4.98083512421649, 30., 54.9999481435063
217, 13.4129147901331, 30., 54.8971443730221
218, 14.7639312708898, 30., 44.8432814515641
219, 6.85409910908981, 30., 44.4174061863773
220, 4.77988314268128, 30., 34.9799700023875
221, 14.3874784761081, 30., 35.0493565471263
222, 15.2389011176516, 30., 25.3376255472503
223, 7.76393127088981, 30., 25.2926127151078
224, 6.36612951046416, 30., 14.1603330297762
225, 15.9392501921708, 30., 16.9546403049286
226, 14.4779073957798, 30., 6.00000305101275
227, 7.10630126146337, 30., 5.34487996654171
228, 0., 22.5258979799608, 7.24049414534199
229, 0., 23.0000001899898, 15.3827623272594
230, 0., 22.5573967524335, 25.1109357551256
231, 0., 22.4618004408226, 34.5453852398904
232, 0., 22.7453219137896, 44.1492495276524
233, 0., 22.3803284424428, 55.0005195126843
234, 0., 22.7350424150802, 65.0000811121792
235, 0., 22.4557882843113, 75.3819723403492
236, 0., 22.4205933620826, 84.9999150336606
237, 0., 22.3462865371015, 94.9921299772294
238, 0., 22.3919983976994, 104.993018870506
239, 0., 22.2772368637061, 114.972938797277
240, 0., 23.0000001899898, 124.906813556827
241, 0., 23.2483920660207, 133.885112372502
242, 0., 22.8222425817876, 142.883201797638
243, 0., 14.8536277607364, 141.69509713937
244, 0., 7.29457539546024, 142.421972526427
245, 0., 7.33098406674691, 134.001121248668
246, 0., 15.5215904014154, 133.264135449629
247, 0., 15.1152835540424, 124.482827522137
248, 0., 7.12834404678876, 125.677652213239
249, 0., 7.8540991090898, 115.27440678558
250, 0., 14.8658386900477, 114.61785362519
251, 0., 14.9413159256191, 104.144810855018
252, 0., 6.71889513857674, 105.853175325655
253, 0., 6.48168934844239, 95.5278039666561
254, 0., 14.0508304589199, 95.2302391712708
255, 0., 14.6765138376986, 84.9999539757099
256, 0., 6.90362209377424, 85.8540846693356
257, 0., 7.00000018998981, 75.0000028017469
258, 0., 14.2221325159184, 74.9494954849591
259, 0., 15.6945359638091, 64.9637484544156
260, 0., 7.19898590685614, 65.8541840745319
261, 0., 7.00000018998981, 55.0003317409873
262, 0., 14.3680301899898, 55.1886676074833
263, 0., 14.9038391564886, 44.2386028007015
264, 0., 6.4240550654013, 45.8545161707306
265, 0., 6.25000018998981, 35.0064851192329
266, 0., 14.4944246463724, 34.1634002416662
267, 0., 14.714727957376, 25.0434600764113
268, 0., 6.37315208433892, 25.9721590523724
269, 0., 7.22423986875657, 16.6578603152691
270, 0., 13.8637234099797, 15.2420575321096
271, 0., 14.6023806373193, 7.35410197011275
272, 0., 6.37284401807789, 6.97004730102972
273, 7.43768489386531, 23.7351967247692, 0.
274, 14.2713156803195, 23.5027623581584, 0.
275, 24.1638773624974, 24.6471485063328, 0.
276, 23.7940399773442, 17.1089647645897, 0.
277, 22.5303581748615, 7.45316909212677, 0.
278, 13.9209433394215, 6.58735783794622, 0.
279, 16.9252212117652, 13.5459012708898, 0.
280, 7.38197018998981, 14.5105404643017, 0.
281, 7.47213251591843, 5.58829902300702, 0.
282, 7.26444176753787, 7.0487639203628, 150.
283, 13.5970490219459, 16.3124231701857, 150.
284, 16.6993039079976, 7.02818921524338, 150.
285, 4.98663279109281, 15.1485562313744, 150.
286, 7.07355432536316, 23.6696701425926, 150.
287, 14.2685966925141, 23.2857252619751, 150.
288, 23.0961526769208, 22.5065555444678, 150.
289, 22.5153507682531, 14.6442148201484, 150.
290, 24.5365261589536, 7.33357911787847, 150.
291, 7.74772560935503, 5.44182770663419, 6.03213232207626
292, 15.1457587252458, 6.76389659770934, 5.47987014459438
293, 8.15552789448853, 12.550299945584, 7.12273861859255
294, 14.7497053649656, 14.179875518391, 8.22809463194973
295, 8.97640375149231, 5.65467834712071, 16.7229433948813
296, 14.9715578507828, 6.55421203997191, 13.8121059793257
297, 7.50223369460263, 12.7081059652278, 14.4054361126952
298, 15.5255116471302, 15.6341760856783, 15.9432623716519
299, 24.6350735243801, 15.4959892440904, 18.6791655595682
300, 14.1334093839864, 23.8283448722218, 16.5592689839607
301, 23.992885688472, 23.6120078176871, 14.7325098487056
302, 14.2196781895744, 14.7900473662665, 26.2125796323991
303, 22.1496095384926, 13.1949603769715, 27.9422455131717
304, 17.8016922405438, 22.6431896579554, 24.6768832900434
305, 23.7587661346273, 22.5517989930854, 23.9873204666896
306, 24.0474165372384, 22.1062682471854, 34.4142487274617
307, 24.260846599865, 21.8265175487941, 45.3162673222063
308, 23.7982468100733, 22.1919864324932, 55.2348447567138
309, 24.1886930555972, 21.745813440519, 65.3973741625447
310, 23.5783177793293, 21.9911561445124, 75.333237425228
311, 24.2284555695642, 21.706082668717, 85.4027486358886
312, 23.9391375151795, 22.1210846955795, 95.2648787497814
313, 24.0743348998252, 22.0320671309826, 105.800914191126
314, 23.9786545864941, 22.041584225897, 115.433564387291
315, 23.1791539108071, 21.7760987666205, 127.224645351599
316, 24.4055187676718, 24.1338453994128, 135.496065881153
317, 24.0300846114743, 22.3225567467178, 143.26543625717
318, 15.8960653651012, 23.2915026203674, 142.030769939935
319, 7.69650389399974, 22.8310595928102, 143.811354953698
320, 7.14973151344, 14.8295591224173, 142.430050989191
321, 12.3910328019951, 13.6774350531816, 145.281143962102
322, 7.22286373209384, 6.71160962354175, 143.284593434194
323, 16.7355194645868, 7.22858338285495, 141.678995464479
324, 24.1763605088126, 5.69073603715541, 141.376765813727
325, 20.7088237502769, 15.0213179051528, 143.0582391961
326, 23.3676348819917, 5.32906124644394, 133.25257880646
327, 24.4794242581419, 14.295395665519, 134.319617165488
328, 23.3512506242789, 5.75825736192855, 124.330010383827
329, 23.9810012594048, 14.998078579973, 125.027538872305
330, 22.9431110546827, 6.2569699333707, 113.238588998859
331, 25.0080214163922, 13.0112254832728, 116.019063407428
332, 23.5430129231792, 5.59972871701711, 103.483840319392
333, 21.4501020201291, 13.0084987948399, 107.250402818127
334, 23.3979222754902, 5.79403837859244, 94.589620521888
335, 24.9519879287934, 12.8781304409325, 96.3528846091301
336, 23.8196521843003, 5.24948122177907, 84.4745812343042
337, 21.5590115611384, 12.8380806932586, 87.3713045008183
338, 23.575470461367, 6.65683776958938, 74.3182662140529
339, 25.1036764134288, 12.9805923037715, 76.3068809957088
340, 23.7299831618159, 5.31827045411509, 64.4609581688793
341, 21.5651307154401, 12.8873143303121, 67.3360083045317
342, 22.9713467663329, 6.30964766688009, 53.4436906258311
343, 24.8443023905954, 13.6230246166319, 55.9148990646546
344, 22.9621604816187, 5.67596904535744, 43.9624712171428
345, 21.4004603985328, 13.0893651035431, 47.2046835472109
346, 22.7755094066477, 5.57246780519403, 33.7797101514182
347, 25.1986581252849, 12.8005660650843, 36.7875515757602
348, 22.4162477866759, 5.63805758048838, 24.0175853600017
349, 22.7610680072035, 6.66607065107717, 14.2821823029716
350, 23.1135620715607, 6.95592391625832, 7.0255626049541
351, 22.2733783970541, 15.0283917022723, 9.13329089776191
352, 23.4612571647795, 22.4901812848159, 6.2614340170951
353, 16.6740405509164, 23.1893604217775, 7.29189857290312
354, 8.00612967722392, 22.1983743173576, 6.11376236894749
355, 8.08581735678188, 22.9645249690921, 13.8401215440711
356, 8.53619928009295, 22.5835000255836, 25.1105718287055
357, 7.1762989494704, 23.596058527968, 35.2539106578584
358, 14.1971653171581, 23.4780839302636, 35.4469088251334
359, 7.97252957862601, 22.8841273174592, 44.384352790711
360, 17.2840582849088, 23.8625776413108, 45.7818165960116
361, 7.10064959846668, 23.9408471358633, 54.9797819870052
362, 13.9667389075798, 23.6754840722389, 54.5522340090022
363, 7.37603980680561, 23.2674392104125, 65.0346285523812
364, 17.0312276758346, 23.6783407834265, 65.9050856898995
365, 6.74963125140465, 24.4521851526484, 74.9634801342009
366, 13.7681872385504, 23.9905079436486, 74.5581985664114
367, 8.35458975832071, 22.5431403080727, 85.0409613526055
368, 17.3489368611054, 23.7147177982566, 83.4987970982623
369, 7.23401569609319, 23.5626803731261, 94.7822310786859
370, 13.8861053301934, 22.7804505280175, 95.088488903109
371, 8.22171361067751, 22.5600190344817, 105.079484174879
372, 17.0172026773179, 22.7495321774731, 104.867903132794
373, 6.46910071808477, 23.2662542382496, 115.044007458001
374, 13.4450185021893, 22.7919406070173, 114.932820158701
375, 7.62925709190649, 23.1791653359242, 123.764231451348
376, 17.0496824333437, 21.6466000128819, 127.112732883141
377, 10.0712778769117, 22.2640866453917, 134.880891690032
378, 16.075831268734, 22.58572523237, 134.514154547841
379, 5.99833666291829, 14.8449413983721, 125.255111061367
380, 12.0391973527108, 13.586696167938, 126.40389157011
381, 5.84801434927059, 15.8932603047696, 133.112394133474
382, 15.0000001899898, 15.0000001899898, 135.000003051013
383, 6.76034966256773, 7.02150135799764, 126.084470092722
384, 13.9455472305283, 6.69228239525236, 123.871668678655
385, 9.32831331310035, 8.13609835300049, 134.515395337539
386, 17.603676558354, 8.27337496413035, 132.927637173904
387, 8.82334895387414, 5.71279924729149, 116.209892769265
388, 14.6484843534668, 6.3954584146515, 113.51529383992
389, 5.7772319256602, 5.44717622452561, 107.291100687772
390, 13.4890940145366, 5.29184736624794, 103.807611046499
391, 7.67643205519357, 13.1074354619291, 105.234317297232
392, 13.4831492732705, 14.6198585256728, 105.679894256887
393, 7.58802275955504, 13.5162237654158, 113.981632942167
394, 15.2359742078983, 15.2257239836976, 115.333367526775
395, 8.64102136571321, 5.2192367057421, 96.5348855806176
396, 15.1828072630521, 5.74175365698607, 94.4239939364294
397, 7.66695860684132, 13.042399014318, 95.1978051051491
398, 14.1307241637382, 15.2236120453135, 94.5944105840981
399, 6.58304531392439, 5.92088567971083, 86.6643813727816
400, 14.4991714835295, 5.71982020716373, 85.0005913514731
401, 8.22295206039557, 13.5791959588394, 85.3757156636835
402, 13.9761277275495, 14.5182996553203, 85.5799184151625
403, 8.98504343836841, 5.02655160771762, 76.5800042029185
404, 15.6329364555825, 6.56940364227291, 74.8458863051562
405, 8.46192409840992, 13.1190215680247, 74.2222583435323
406, 15.0000001899898, 15.0000001899898, 75.0000030510128
407, 6.60323277307279, 5.91330546698903, 66.6705375741946
408, 14.3738319352203, 5.5113763531156, 64.6176768618394
409, 8.28393385359746, 12.9679464092678, 65.2834293396861
410, 13.910554793434, 14.2880872507072, 65.5151647547873
411, 8.75405582398663, 5.39069333808814, 56.4545030995228
412, 15.3974297584152, 6.50588510911334, 53.8566596129702
413, 7.40144984552748, 13.3238597089822, 55.143953101136
414, 15.6509933615644, 14.6564854711971, 55.5457340689395
415, 5.44140637631354, 5.9375001291337, 46.3515655510128
416, 13.3384832680358, 6.36029904621595, 43.9376173998032
417, 7.03522987854394, 13.1900242227164, 45.0987404861941
418, 13.1569144559412, 14.6969255177463, 45.7175582670975
419, 8.5490919146601, 5.54207599518129, 36.4310940040417
420, 14.5330620552685, 6.00168788939544, 33.7898156340636
421, 7.44401056339381, 13.5799270343581, 34.072223198578
422, 15.0000001899898, 15.0000001899898, 35.0000030510128
423, 5.55774971094754, 5.94025532360548, 26.3996798182777
424, 6.99246515873207, 13.1809813704695, 25.3952181634046
425, 13.3362936835024, 6.35837361477382, 24.0147140058966
*NSET, NSET="Fixed (26)-1"
1, 3, 5, 7, 24, 25, 26, 45, 46, 47, 66, 67, 68, 87, 88, 89
273, 274, 275, 276, 277, 278, 279, 280, 281
*NSET, NSET="Force (29)-1"
2
*ELEMENT, TYPE=C3D4
1, 1, 24, 89, 9
2, 93, 24, 9, 291
3, 281, 89, 24, 291
4, 291, 89, 24, 9
5, 9, 291, 89, 272
6, 278, 281, 25, 291
7, 291, 96, 25, 292
8, 291, 24, 281, 25
9, 25, 291, 24, 93
10, 291, 278, 281, 280
11, 112, 113, 43, 322
12, 271, 88, 280, 89
13, 293, 280, 291, 271
14, 281, 280, 89, 291
15, 291, 280, 89, 271
16, 271, 89, 291, 272
17, 292, 278, 280, 279
18, 292, 280, 293, 294
19, 280, 279, 294, 292
20, 296, 297, 292, 291
21, 112, 114, 113, 322
22, 322, 382, 320, 321
23, 10, 269, 95, 9
24, 295, 291, 95, 269
25, 95, 93, 9, 291
26, 291, 9, 95, 269
27, 269, 291, 9, 272
28, 292, 291, 96, 94
29, 296, 291, 94, 295
30, 94, 95, 295, 291
31, 282, 283, 284, 321
32, 296, 292, 94, 291
33, 93, 94, 291, 95
34, 291, 271, 272, 269
35, 291, 269, 295, 297
36, 293, 291, 297, 271
37, 271, 291, 297, 269
38, 269, 297, 271, 270
39, 298, 294, 296, 297
40, 297, 292, 293, 294
41, 292, 279, 294, 350
42, 112, 115, 114, 323
43, 294, 297, 292, 296
44, 296, 297, 291, 295
45, 245, 22, 114, 23
46, 113, 114, 23, 322
47, 385, 114, 322, 245
48, 245, 114, 322, 23
49, 23, 322, 245, 244
50, 385, 386, 323, 115
51, 112, 114, 322, 323
52, 292, 277, 279, 350
53, 321, 320, 319, 382
54, 115, 114, 323, 385
55, 385, 114, 323, 322
56, 322, 245, 244, 243
57, 320, 381, 322, 243
58, 381, 385, 322, 245
59, 245, 322, 381, 243
60, 243, 381, 245, 246
61, 322, 381, 320, 382
62, 323, 386, 385, 382
63, 322, 385, 381, 382
64, 382, 322, 385, 323
65, 322, 282, 284, 321
66, 321, 322, 382, 323
67, 2, 92, 42, 23
68, 92, 282, 42, 322
69, 42, 113, 23, 322
70, 322, 23, 42, 92
71, 92, 322, 23, 244
72, 322, 284, 43, 323
73, 112, 322, 43, 323
74, 322, 42, 113, 43
75, 292, 26, 277, 350
76, 43, 322, 42, 282
77, 350, 94, 349, 296
78, 91, 243, 285, 92
79, 243, 322, 320, 285
80, 285, 282, 92, 322
81, 322, 92, 285, 243
82, 243, 322, 92, 244
83, 322, 321, 320, 285
84, 285, 283, 282, 321
85, 323, 322, 284, 321
86, 296, 350, 292, 294
87, 285, 321, 282, 322
88, 277, 276, 279, 350
89, 277, 278, 26, 292
90, 292, 97, 26, 350
91, 292, 25, 278, 26
92, 26, 292, 25, 96
93, 111, 112, 44, 323
94, 94, 97, 96, 292
95, 3, 45, 26, 27
96, 97, 27, 26, 350
97, 45, 277, 26, 350
98, 350, 26, 45, 27
99, 27, 45, 350, 138
100, 350, 279, 294, 351
101, 277, 279, 278, 292
102, 279, 276, 351, 350
103, 296, 349, 348, 94
104, 96, 97, 26, 292
105, 324, 115, 326, 110
106, 46, 140, 276, 45
107, 350, 276, 351, 140
108, 276, 277, 45, 350
109, 350, 45, 276, 140
110, 140, 350, 45, 138
111, 349, 350, 98, 94
112, 98, 97, 94, 350
113, 111, 115, 112, 323
114, 110, 115, 326, 328
115, 4, 290, 63, 41
116, 296, 350, 94, 292
117, 141, 28, 98, 27
118, 98, 350, 349, 141
119, 97, 98, 27, 350
120, 350, 98, 27, 141
121, 141, 27, 350, 138
122, 299, 351, 349, 298
123, 351, 350, 349, 296
124, 351, 296, 349, 298
125, 298, 351, 296, 294
126, 94, 97, 292, 350
127, 296, 351, 350, 294
128, 350, 138, 140, 141
129, 141, 139, 140, 299
130, 349, 351, 299, 141
131, 141, 351, 299, 140
132, 140, 141, 351, 350
133, 350, 141, 351, 349
134, 386, 326, 324, 115
135, 111, 115, 323, 324
136, 274, 67, 354, 353
137, 167, 64, 289, 290
138, 290, 284, 325, 323
139, 386, 115, 324, 323
140, 40, 165, 110, 41
141, 110, 111, 41, 324
142, 324, 110, 326, 165
143, 165, 324, 110, 41
144, 41, 165, 324, 166
145, 323, 382, 321, 325
146, 324, 326, 386, 327
147, 323, 386, 382, 327
148, 327, 323, 386, 324
149, 323, 327, 382, 325
150, 325, 323, 327, 324
151, 324, 166, 165, 167
152, 324, 327, 325, 167
153, 324, 326, 327, 165
154, 165, 327, 324, 167
155, 167, 165, 327, 163
156, 323, 290, 44, 324
157, 111, 323, 44, 324
158, 323, 43, 112, 44
159, 44, 323, 43, 284
160, 167, 166, 63, 290
161, 4, 44, 290, 41
162, 182, 276, 47, 46
163, 111, 44, 41, 324
164, 324, 44, 41, 290
165, 290, 41, 324, 166
166, 289, 284, 283, 325
167, 321, 283, 284, 325
168, 352, 276, 351, 353
169, 290, 323, 325, 324
170, 325, 284, 321, 323
171, 63, 41, 290, 166
172, 167, 64, 290, 63
173, 167, 166, 290, 324
174, 325, 289, 290, 167
175, 351, 276, 352, 182
176, 279, 353, 276, 274
177, 324, 290, 167, 325
178, 288, 167, 65, 64
179, 352, 275, 276, 353
180, 351, 294, 353, 279
181, 325, 316, 317, 167
182, 353, 275, 276, 274
183, 47, 182, 275, 276
184, 276, 275, 352, 182
185, 182, 140, 351, 276
186, 167, 169, 163, 316
187, 181, 182, 140, 301
188, 46, 182, 276, 140
189, 183, 66, 275, 67
190, 275, 353, 352, 183
191, 274, 275, 67, 353
192, 353, 275, 67, 183
193, 183, 67, 353, 226
194, 275, 182, 47, 5
195, 182, 48, 5, 183
196, 182, 275, 352, 183
197, 183, 182, 275, 5
198, 5, 275, 183, 66
199, 300, 298, 353, 301
200, 299, 298, 301, 351
201, 352, 351, 301, 353
202, 353, 351, 301, 298
203, 298, 353, 351, 294
204, 301, 351, 352, 182
205, 181, 140, 139, 301
206, 299, 139, 140, 301
207, 325, 167, 317, 288
208, 182, 140, 301, 351
209, 351, 140, 301, 299
210, 353, 183, 226, 225
211, 301, 353, 300, 225
212, 301, 352, 353, 183
213, 183, 353, 301, 225
214, 225, 301, 183, 184
215, 183, 182, 48, 49
216, 184, 183, 49, 301
217, 182, 183, 352, 301
218, 301, 182, 183, 49
219, 49, 301, 182, 181
220, 317, 316, 325, 318
221, 382, 378, 318, 316
222, 325, 321, 318, 382
223, 382, 318, 325, 316
224, 316, 325, 382, 327
225, 167, 316, 317, 168
226, 168, 169, 167, 316
227, 327, 167, 163, 316
228, 297, 354, 355, 298
229, 224, 226, 354, 227
230, 325, 316, 167, 327
231, 201, 198, 318, 197
232, 316, 318, 317, 197
233, 318, 316, 378, 201
234, 201, 318, 316, 197
235, 197, 316, 201, 196
236, 62, 168, 197, 61
237, 168, 316, 317, 197
238, 197, 196, 61, 316
239, 316, 61, 197, 168
240, 168, 316, 61, 169
241, 325, 283, 289, 288
242, 318, 325, 317, 288
243, 318, 321, 325, 283
244, 283, 325, 318, 288
245, 288, 318, 283, 287
246, 168, 65, 288, 167
247, 167, 168, 317, 288
248, 325, 288, 289, 167
249, 318, 198, 201, 200
250, 274, 273, 280, 354
251, 64, 288, 167, 289
252, 84, 197, 288, 85
253, 197, 318, 317, 288
254, 288, 287, 85, 318
255, 318, 85, 288, 197
256, 197, 318, 85, 198
257, 197, 168, 62, 6
258, 168, 65, 6, 288
259, 168, 197, 317, 288
260, 288, 168, 197, 6
261, 6, 197, 288, 84
262, 280, 88, 271, 87
263, 280, 271, 293, 354
264, 280, 273, 87, 354
265, 354, 87, 280, 271
266, 271, 354, 87, 228
267, 294, 293, 354, 280
268, 274, 280, 279, 354
269, 115, 383, 386, 384
270, 356, 297, 355, 298
271, 279, 354, 280, 294
272, 7, 87, 68, 69
273, 227, 69, 68, 354
274, 87, 273, 68, 354
275, 354, 68, 87, 69
276, 69, 87, 354, 228
277, 273, 274, 67, 354
278, 226, 227, 67, 354
279, 68, 354, 273, 67
280, 386, 383, 380, 384
281, 354, 67, 68, 227
282, 198, 85, 319, 318
283, 297, 271, 270, 229
284, 355, 354, 297, 229
285, 354, 293, 297, 271
286, 271, 297, 354, 229
287, 229, 354, 271, 228
288, 298, 354, 355, 353
289, 297, 294, 293, 354
290, 298, 353, 294, 354
291, 298, 354, 294, 297
292, 420, 425, 135, 423
293, 224, 226, 353, 354
294, 229, 70, 224, 69
295, 354, 229, 355, 224
296, 227, 224, 69, 354
297, 354, 224, 69, 229
298, 229, 69, 354, 228
299, 353, 225, 226, 224
300, 353, 354, 355, 224
301, 318, 198, 200, 319
302, 423, 297, 424, 425
303, 225, 224, 353, 300
304, 67, 226, 354, 353
305, 381, 246, 243, 241
306, 381, 243, 320, 319
307, 377, 381, 319, 241
308, 241, 381, 319, 243
309, 243, 319, 241, 242
310, 318, 378, 382, 377
311, 382, 320, 319, 381
312, 318, 382, 321, 319
313, 282, 284, 43, 322
314, 382, 319, 318, 377
315, 377, 382, 319, 381
316, 82, 241, 200, 83
317, 200, 199, 83, 319
318, 241, 319, 377, 200
319, 200, 241, 319, 83
320, 83, 241, 319, 242
321, 319, 198, 200, 199
322, 318, 378, 377, 201
323, 286, 287, 283, 319
324, 201, 318, 200, 377
325, 377, 318, 200, 319
326, 285, 243, 91, 90
327, 286, 285, 90, 319
328, 243, 285, 320, 319
329, 319, 243, 285, 90
330, 90, 319, 243, 242
331, 319, 320, 321, 285
332, 286, 283, 285, 319
333, 318, 283, 287, 319
334, 85, 286, 86, 319
335, 285, 319, 283, 321
336, 321, 319, 283, 318
337, 8, 86, 90, 83
338, 286, 90, 86, 319
339, 199, 86, 83, 319
340, 319, 86, 83, 90
341, 90, 83, 319, 242
342, 287, 286, 85, 319
343, 199, 198, 85, 319
344, 319, 199, 86, 85
345, 95, 136, 94, 425
346, 287, 319, 85, 318
347, 95, 269, 10, 11
348, 137, 95, 11, 423
349, 269, 95, 295, 423
350, 423, 269, 95, 11
351, 11, 423, 269, 268
352, 295, 296, 425, 94
353, 137, 136, 95, 425
354, 423, 137, 95, 425
355, 421, 423, 424, 425
356, 94, 95, 425, 295
357, 295, 95, 425, 423
358, 297, 270, 269, 267
359, 424, 297, 423, 267
360, 297, 295, 423, 269
361, 269, 423, 297, 267
362, 267, 269, 423, 268
363, 425, 297, 424, 302
364, 297, 298, 302, 425
365, 415, 421, 417, 416
366, 423, 297, 425, 295
367, 425, 297, 298, 296
368, 296, 425, 297, 295
369, 12, 265, 134, 11
370, 419, 423, 134, 265
371, 134, 137, 11, 423
372, 423, 11, 134, 265
373, 265, 423, 11, 268
374, 425, 137, 136, 135
375, 420, 423, 135, 419
376, 135, 134, 419, 423
377, 412, 416, 131, 415
378, 425, 135, 423, 137
379, 137, 135, 423, 134
380, 423, 267, 268, 265
381, 423, 265, 419, 421
382, 424, 423, 421, 267
383, 267, 423, 421, 265
384, 265, 421, 267, 266
385, 422, 302, 420, 421
386, 421, 425, 424, 302
387, 412, 413, 416, 415
388, 134, 132, 135, 416
389, 302, 421, 425, 420
390, 420, 421, 423, 419
391, 134, 265, 12, 13
392, 133, 134, 13, 415
393, 265, 134, 419, 415
394, 415, 265, 134, 13
395, 13, 415, 265, 264
396, 419, 420, 416, 135
397, 133, 132, 134, 416
398, 415, 133, 134, 416
399, 413, 415, 417, 416
400, 135, 134, 416, 419
401, 419, 134, 416, 415
402, 421, 266, 265, 263
403, 417, 421, 415, 263
404, 421, 419, 415, 265
405, 265, 415, 421, 263
406, 263, 265, 415, 264
407, 416, 421, 417, 418
408, 421, 422, 418, 416
409, 407, 413, 409, 408
410, 415, 421, 416, 419
411, 416, 421, 422, 420
412, 420, 416, 421, 419
413, 14, 261, 130, 13
414, 411, 415, 130, 261
415, 130, 133, 13, 415
416, 415, 13, 130, 261
417, 261, 415, 13, 264
418, 416, 133, 132, 131
419, 412, 415, 131, 411
420, 131, 130, 411, 415
421, 404, 408, 127, 407
422, 416, 131, 415, 133
423, 133, 131, 415, 130
424, 415, 263, 264, 261
425, 415, 261, 411, 413
426, 417, 415, 413, 263
427, 263, 415, 413, 261
428, 261, 413, 263, 262
429, 414, 418, 412, 413
430, 413, 416, 417, 418
431, 404, 405, 408, 407
432, 130, 128, 131, 408
433, 418, 413, 416, 412
434, 412, 413, 415, 411
435, 130, 261, 14, 15
436, 129, 130, 15, 407
437, 261, 130, 411, 407
438, 407, 261, 130, 15
439, 15, 407, 261, 260
440, 411, 412, 408, 131
441, 129, 128, 130, 408
442, 407, 129, 130, 408
443, 405, 407, 409, 408
444, 131, 130, 408, 411
445, 411, 130, 408, 407
446, 413, 262, 261, 259
447, 409, 413, 407, 259
448, 413, 411, 407, 261
449, 261, 407, 413, 259
450, 259, 261, 407, 260
451, 408, 413, 409, 410
452, 413, 414, 410, 408
453, 399, 405, 401, 400
454, 407, 413, 408, 411
455, 408, 413, 414, 412
456, 412, 408, 413, 411
457, 16, 257, 126, 15
458, 403, 407, 126, 257
459, 126, 129, 15, 407
460, 407, 15, 126, 257
461, 257, 407, 15, 260
462, 408, 129, 128, 127
463, 404, 407, 127, 403
464, 127, 126, 403, 407
465, 396, 400, 123, 399
466, 408, 127, 407, 129
467, 129, 127, 407, 126
468, 407, 259, 260, 257
469, 407, 257, 403, 405
470, 409, 407, 405, 259
471, 259, 407, 405, 257
472, 257, 405, 259, 258
473, 406, 410, 404, 405
474, 405, 408, 409, 410
475, 396, 397, 400, 399
476, 126, 124, 127, 400
477, 410, 405, 408, 404
478, 404, 405, 407, 403
479, 126, 257, 16, 17
480, 125, 126, 17, 399
481, 257, 126, 403, 399
482, 399, 257, 126, 17
483, 17, 399, 257, 256
484, 403, 404, 400, 127
485, 125, 124, 126, 400
486, 399, 125, 126, 400
487, 397, 399, 401, 400
488, 127, 126, 400, 403
489, 403, 126, 400, 399
490, 405, 258, 257, 255
491, 401, 405, 399, 255
492, 405, 403, 399, 257
493, 257, 399, 405, 255
494, 255, 257, 399, 256
495, 400, 405, 401, 402
496, 405, 406, 402, 400
497, 389, 397, 391, 390
498, 399, 405, 400, 403
499, 400, 405, 406, 404
500, 404, 400, 405, 403
501, 18, 253, 122, 17
502, 395, 399, 122, 253
503, 122, 125, 17, 399
504, 399, 17, 122, 253
505, 253, 399, 17, 256
506, 400, 125, 124, 123
507, 396, 399, 123, 395
508, 123, 122, 395, 399
509, 388, 390, 119, 389
510, 400, 123, 399, 125
511, 125, 123, 399, 122
512, 399, 255, 256, 253
513, 399, 253, 395, 397
514, 401, 399, 397, 255
515, 255, 399, 397, 253
516, 253, 397, 255, 254
517, 398, 402, 396, 397
518, 397, 400, 401, 402
519, 388, 393, 390, 389
520, 122, 120, 123, 390
521, 402, 397, 400, 396
522, 396, 397, 399, 395
523, 122, 253, 18, 19
524, 121, 122, 19, 389
525, 253, 122, 395, 389
526, 389, 253, 122, 19
527, 19, 389, 253, 252
528, 395, 396, 390, 123
529, 121, 120, 122, 390
530, 389, 121, 122, 390
531, 393, 389, 391, 390
532, 123, 122, 390, 395
533, 395, 122, 390, 389
534, 397, 254, 253, 251
535, 391, 397, 389, 251
536, 397, 395, 389, 253
537, 253, 389, 397, 251
538, 251, 253, 389, 252
539, 390, 397, 391, 392
540, 397, 398, 392, 390
541, 94, 99, 98, 348
542, 389, 397, 390, 395
543, 390, 397, 398, 396
544, 396, 390, 397, 395
545, 20, 249, 118, 19
546, 387, 389, 118, 249
547, 118, 121, 19, 389
548, 389, 19, 118, 249
549, 249, 389, 19, 252
550, 390, 121, 120, 119
551, 388, 389, 119, 387
552, 119, 118, 387, 389
553, 386, 384, 380, 329
554, 390, 119, 389, 121
555, 121, 119, 389, 118
556, 389, 251, 252, 249
557, 389, 249, 387, 393
558, 391, 389, 393, 251
559, 251, 389, 393, 249
560, 249, 393, 251, 250
561, 394, 392, 388, 393
562, 393, 390, 391, 392
563, 386, 385, 380, 383
564, 118, 116, 119, 384
565, 392, 393, 390, 388
566, 388, 393, 389, 387
567, 118, 249, 20, 21
568, 117, 118, 21, 383
569, 249, 118, 387, 383
570, 383, 249, 118, 21
571, 21, 383, 249, 248
572, 387, 388, 384, 119
573, 117, 116, 118, 384
574, 383, 117, 118, 384
575, 348, 135, 346, 420
576, 119, 118, 384, 387
577, 387, 118, 384, 383
578, 393, 250, 249, 247
579, 379, 393, 383, 247
580, 393, 387, 383, 249
581, 249, 383, 393, 247
582, 247, 249, 383, 248
583, 383, 393, 379, 380
584, 393, 394, 380, 384
585, 393, 384, 380, 383
586, 383, 393, 384, 387
587, 384, 393, 394, 388
588, 388, 384, 393, 387
589, 114, 22, 245, 21
590, 114, 245, 385, 383
591, 114, 117, 21, 383
592, 383, 21, 114, 245
593, 245, 383, 21, 248
594, 115, 385, 386, 383
595, 116, 117, 115, 384
596, 385, 115, 114, 383
597, 383, 115, 114, 117
598, 117, 383, 115, 384
599, 279, 353, 354, 294
600, 381, 245, 246, 247
601, 379, 383, 381, 247
602, 245, 381, 385, 383
603, 383, 245, 381, 247
604, 247, 383, 245, 248
605, 344, 131, 342, 412
606, 381, 383, 379, 380
607, 382, 385, 381, 380
608, 380, 385, 381, 383
609, 385, 380, 382, 386
610, 279, 274, 354, 353
611, 94, 349, 348, 98
612, 136, 99, 94, 348
613, 425, 136, 94, 348
614, 420, 346, 344, 135
615, 111, 110, 115, 324
616, 296, 94, 348, 425
617, 98, 28, 141, 29
618, 98, 99, 29, 348
619, 98, 141, 349, 348
620, 348, 98, 141, 29
621, 29, 141, 348, 142
622, 425, 298, 302, 303
623, 298, 299, 303, 348
624, 298, 348, 303, 425
625, 425, 298, 348, 296
626, 348, 298, 299, 349
627, 349, 348, 298, 296
628, 299, 141, 139, 144
629, 348, 299, 303, 144
630, 348, 349, 299, 141
631, 141, 299, 348, 144
632, 144, 348, 141, 142
633, 346, 348, 100, 135
634, 100, 99, 135, 348
635, 425, 135, 136, 348
636, 101, 100, 135, 344
637, 340, 127, 338, 404
638, 420, 348, 135, 425
639, 145, 30, 100, 29
640, 100, 348, 346, 145
641, 99, 100, 29, 348
642, 348, 100, 29, 145
643, 145, 29, 348, 142
644, 347, 303, 346, 422
645, 303, 348, 346, 420
646, 303, 420, 346, 422
647, 422, 303, 420, 302
648, 420, 303, 348, 425
649, 425, 420, 303, 302
650, 348, 142, 144, 145
651, 145, 143, 144, 347
652, 346, 303, 347, 145
653, 145, 303, 347, 144
654, 144, 145, 303, 348
655, 348, 145, 303, 346
656, 135, 346, 344, 100
657, 101, 135, 132, 344
658, 416, 132, 135, 344
659, 412, 342, 340, 131
660, 131, 101, 132, 344
661, 420, 135, 344, 416
662, 100, 30, 145, 31
663, 100, 101, 31, 344
664, 100, 145, 346, 344
665, 344, 100, 145, 31
666, 31, 145, 344, 146
667, 416, 422, 418, 345
668, 422, 347, 345, 344
669, 422, 344, 345, 416
670, 416, 422, 344, 420
671, 344, 422, 347, 346
672, 346, 344, 422, 420
673, 347, 145, 143, 148
674, 344, 347, 345, 148
675, 344, 346, 347, 145
676, 145, 347, 344, 148
677, 148, 344, 145, 146
678, 342, 344, 102, 131
679, 102, 101, 131, 344
680, 416, 131, 132, 344
681, 103, 102, 131, 340
682, 336, 123, 334, 396
683, 412, 344, 131, 416
684, 149, 32, 102, 31
685, 102, 344, 342, 149
686, 101, 102, 31, 344
687, 344, 102, 31, 149
688, 149, 31, 344, 146
689, 343, 345, 342, 414
690, 345, 344, 342, 412
691, 345, 412, 342, 414
692, 414, 345, 412, 418
693, 412, 345, 344, 416
694, 416, 412, 345, 418
695, 344, 146, 148, 149
696, 149, 147, 148, 343
697, 342, 345, 343, 149
698, 149, 345, 343, 148
699, 148, 149, 345, 344
700, 344, 149, 345, 342
701, 131, 342, 340, 102
702, 103, 131, 128, 340
703, 408, 128, 131, 340
704, 404, 338, 336, 127
705, 127, 103, 128, 340
706, 412, 131, 340, 408
707, 102, 32, 149, 33
708, 102, 103, 33, 340
709, 102, 149, 342, 340
710, 340, 102, 149, 33
711, 33, 149, 340, 150
712, 408, 414, 410, 341
713, 414, 343, 341, 340
714, 414, 340, 341, 408
715, 408, 414, 340, 412
716, 340, 414, 343, 342
717, 342, 340, 414, 412
718, 343, 149, 147, 152
719, 340, 343, 341, 152
720, 340, 342, 343, 149
721, 149, 343, 340, 152
722, 152, 340, 149, 150
723, 338, 340, 104, 127
724, 104, 103, 127, 340
725, 408, 127, 128, 340
726, 105, 104, 127, 336
727, 332, 119, 330, 388
728, 404, 340, 127, 408
729, 153, 34, 104, 33
730, 104, 340, 338, 153
731, 103, 104, 33, 340
732, 340, 104, 33, 153
733, 153, 33, 340, 150
734, 339, 341, 338, 406
735, 341, 340, 338, 404
736, 341, 404, 338, 406
737, 406, 341, 404, 410
738, 404, 341, 340, 408
739, 408, 404, 341, 410
740, 340, 150, 152, 153
741, 153, 151, 152, 339
742, 338, 341, 339, 153
743, 153, 341, 339, 152
744, 152, 153, 341, 340
745, 340, 153, 341, 338
746, 127, 338, 336, 104
747, 105, 127, 124, 336
748, 400, 124, 127, 336
749, 396, 334, 332, 123
750, 123, 105, 124, 336
751, 404, 127, 336, 400
752, 104, 34, 153, 35
753, 104, 105, 35, 336
754, 104, 153, 338, 336
755, 336, 104, 153, 35
756, 35, 153, 336, 154
757, 400, 406, 402, 337
758, 406, 339, 337, 336
759, 406, 336, 337, 400
760, 400, 406, 336, 404
761, 336, 406, 339, 338
762, 338, 336, 406, 404
763, 339, 153, 151, 156
764, 336, 339, 337, 156
765, 336, 338, 339, 153
766, 153, 339, 336, 156
767, 156, 336, 153, 154
768, 334, 336, 106, 123
769, 106, 105, 123, 336
770, 400, 123, 124, 336
771, 107, 106, 123, 332
772, 305, 299, 303, 304
773, 396, 336, 123, 400
774, 157, 36, 106, 35
775, 106, 336, 334, 157
776, 105, 106, 35, 336
777, 336, 106, 35, 157
778, 157, 35, 336, 154
779, 335, 337, 334, 398
780, 337, 336, 334, 396
781, 337, 396, 334, 398
782, 398, 337, 396, 402
783, 396, 337, 336, 400
784, 400, 396, 337, 402
785, 336, 154, 156, 157
786, 157, 155, 156, 335
787, 334, 337, 335, 157
788, 157, 337, 335, 156
789, 156, 157, 337, 336
790, 336, 157, 337, 334
791, 123, 334, 332, 106
792, 107, 123, 120, 332
793, 390, 120, 123, 332
794, 388, 330, 328, 119
795, 119, 107, 120, 332
796, 396, 123, 332, 390
797, 106, 36, 157, 37
798, 106, 107, 37, 332
799, 106, 157, 334, 332
800, 332, 106, 157, 37
801, 37, 157, 332, 158
802, 390, 398, 392, 333
803, 398, 335, 333, 332
804, 398, 332, 333, 390
805, 390, 398, 332, 396
806, 332, 398, 335, 334
807, 334, 332, 398, 396
808, 335, 157, 155, 160
809, 332, 335, 333, 160
810, 332, 334, 335, 157
811, 157, 335, 332, 160
812, 160, 332, 157, 158
813, 330, 332, 108, 119
814, 108, 107, 119, 332
815, 390, 119, 120, 332
816, 109, 108, 119, 328
817, 345, 306, 307, 148
818, 388, 332, 119, 390
819, 161, 38, 108, 37
820, 108, 332, 330, 161
821, 107, 108, 37, 332
822, 332, 108, 37, 161
823, 161, 37, 332, 158
824, 331, 333, 330, 394
825, 333, 332, 330, 388
826, 333, 388, 330, 394
827, 394, 333, 388, 392
828, 388, 333, 332, 390
829, 390, 388, 333, 392
830, 332, 158, 160, 161
831, 161, 159, 160, 331
832, 330, 333, 331, 161
833, 161, 333, 331, 160
834, 160, 161, 333, 332
835, 332, 161, 333, 330
836, 119, 330, 328, 108
837, 109, 119, 116, 328
838, 384, 116, 119, 328
839, 109, 116, 115, 328
840, 179, 180, 144, 306
841, 388, 119, 328, 384
842, 108, 38, 161, 39
843, 108, 109, 39, 328
844, 108, 161, 330, 328
845, 328, 108, 161, 39
846, 39, 161, 328, 162
847, 384, 394, 380, 329
848, 394, 331, 329, 328
849, 394, 328, 329, 384
850, 384, 394, 328, 388
851, 328, 394, 331, 330
852, 330, 328, 394, 388
853, 331, 161, 159, 164
854, 328, 331, 329, 164
855, 328, 330, 331, 161
856, 161, 331, 328, 164
857, 164, 328, 161, 162
858, 115, 386, 326, 328
859, 109, 115, 110, 328
860, 384, 115, 116, 328
861, 303, 299, 305, 180
862, 284, 290, 44, 323
863, 386, 328, 115, 384
864, 110, 165, 40, 39
865, 165, 110, 326, 328
866, 109, 110, 39, 328
867, 328, 110, 39, 165
868, 165, 39, 328, 162
869, 327, 326, 386, 328
870, 382, 386, 380, 329
871, 327, 386, 382, 329
872, 135, 99, 136, 348
873, 386, 329, 327, 328
874, 328, 386, 329, 384
875, 327, 163, 165, 164
876, 327, 328, 329, 164
877, 327, 165, 326, 328
878, 328, 327, 165, 164
879, 164, 165, 328, 162
880, 305, 301, 299, 304
881, 303, 302, 304, 298
882, 298, 300, 304, 301
883, 301, 304, 298, 299
884, 341, 308, 309, 152
885, 301, 139, 181, 180
886, 299, 301, 305, 180
887, 180, 144, 303, 299
888, 148, 179, 143, 306
889, 301, 180, 299, 139
890, 139, 180, 299, 144
891, 301, 184, 225, 185
892, 301, 304, 305, 185
893, 304, 301, 300, 225
894, 225, 304, 301, 185
895, 185, 225, 304, 222
896, 50, 180, 185, 49
897, 180, 301, 305, 185
898, 185, 184, 49, 301
899, 301, 49, 185, 180
900, 180, 301, 49, 181
901, 358, 422, 304, 306
902, 347, 422, 306, 303
903, 305, 303, 306, 304
904, 304, 303, 306, 422
905, 422, 304, 303, 302
906, 306, 303, 305, 180
907, 179, 144, 143, 306
908, 347, 143, 144, 306
909, 308, 345, 307, 148
910, 180, 144, 306, 303
911, 303, 144, 306, 347
912, 304, 185, 222, 221
913, 306, 304, 358, 221
914, 306, 305, 304, 185
915, 185, 304, 306, 221
916, 221, 306, 185, 186
917, 185, 180, 50, 51
918, 186, 185, 51, 306
919, 180, 185, 305, 306
920, 306, 180, 185, 51
921, 51, 306, 180, 179
922, 307, 306, 345, 360
923, 345, 418, 360, 422
924, 422, 358, 360, 306
925, 306, 360, 422, 345
926, 345, 422, 306, 347
927, 148, 306, 307, 178
928, 178, 179, 148, 306
929, 347, 148, 143, 306
930, 177, 178, 148, 308
931, 337, 310, 311, 156
932, 345, 306, 148, 347
933, 306, 186, 221, 187
934, 306, 360, 307, 187
935, 360, 306, 358, 221
936, 221, 360, 306, 187
937, 187, 221, 360, 218
938, 52, 178, 187, 51
939, 178, 306, 307, 187
940, 187, 186, 51, 306
941, 306, 51, 187, 178
942, 178, 306, 51, 179
943, 362, 414, 360, 308
944, 343, 414, 308, 345
945, 307, 345, 308, 360
946, 360, 345, 308, 414
947, 414, 360, 345, 418
948, 308, 148, 307, 178
949, 177, 148, 147, 308
950, 343, 147, 148, 308
951, 310, 341, 309, 152
952, 152, 177, 147, 308
953, 345, 148, 308, 343
954, 360, 187, 218, 217
955, 308, 360, 362, 217
956, 308, 307, 360, 187
957, 187, 360, 308, 217
958, 217, 308, 187, 188
959, 187, 178, 52, 53
960, 188, 187, 53, 308
961, 178, 187, 307, 308
962, 308, 178, 187, 53
963, 53, 308, 178, 177
964, 309, 308, 341, 364
965, 341, 410, 364, 414
966, 414, 362, 364, 308
967, 308, 364, 414, 341
968, 341, 414, 308, 343
969, 152, 308, 309, 176
970, 176, 177, 152, 308
971, 343, 152, 147, 308
972, 175, 176, 152, 310
973, 333, 312, 313, 160
974, 341, 308, 152, 343
975, 308, 188, 217, 189
976, 308, 364, 309, 189
977, 364, 308, 362, 217
978, 217, 364, 308, 189
979, 189, 217, 364, 214
980, 54, 176, 189, 53
981, 176, 308, 309, 189
982, 189, 188, 53, 308
983, 308, 53, 189, 176
984, 176, 308, 53, 177
985, 366, 406, 364, 310
986, 339, 406, 310, 341
987, 309, 341, 310, 364
988, 364, 341, 310, 406
989, 406, 364, 341, 410
990, 310, 152, 309, 176
991, 175, 152, 151, 310
992, 339, 151, 152, 310
993, 312, 337, 311, 156
994, 156, 175, 151, 310
995, 341, 152, 310, 339
996, 364, 189, 214, 213
997, 310, 364, 366, 213
998, 310, 309, 364, 189
999, 189, 364, 310, 213
1000, 213, 310, 189, 190
1001, 189, 176, 54, 55
1002, 190, 189, 55, 310
1003, 176, 189, 309, 310
1004, 310, 176, 189, 55
1005, 55, 310, 176, 175
1006, 311, 310, 337, 368
1007, 337, 402, 368, 406
1008, 406, 366, 368, 310
1009, 310, 368, 406, 337
1010, 337, 406, 310, 339
1011, 156, 310, 311, 174
1012, 174, 175, 156, 310
1013, 339, 156, 151, 310
1014, 173, 174, 156, 312
1015, 225, 223, 224, 356
1016, 337, 310, 156, 339
1017, 310, 190, 213, 191
1018, 310, 368, 311, 191
1019, 368, 310, 366, 213
1020, 213, 368, 310, 191
1021, 191, 213, 368, 210
1022, 56, 174, 191, 55
1023, 174, 310, 311, 191
1024, 191, 190, 55, 310
1025, 310, 55, 191, 174
1026, 174, 310, 55, 175
1027, 370, 398, 368, 312
1028, 335, 398, 312, 337
1029, 311, 337, 312, 368
1030, 368, 337, 312, 398
1031, 398, 368, 337, 402
1032, 312, 156, 311, 174
1033, 173, 156, 155, 312
1034, 335, 155, 156, 312
1035, 314, 333, 313, 160
1036, 160, 173, 155, 312
1037, 337, 156, 312, 335
1038, 368, 191, 210, 209
1039, 312, 368, 370, 209
1040, 312, 311, 368, 191
1041, 191, 368, 312, 209
1042, 209, 312, 191, 192
1043, 191, 174, 56, 57
1044, 192, 191, 57, 312
1045, 174, 191, 311, 312
1046, 312, 174, 191, 57
1047, 57, 312, 174, 173
1048, 313, 312, 333, 372
1049, 333, 392, 372, 398
1050, 398, 370, 372, 312
1051, 312, 372, 398, 333
1052, 333, 398, 312, 335
1053, 160, 312, 313, 172
1054, 172, 173, 160, 312
1055, 335, 160, 155, 312
1056, 171, 172, 160, 314
1057, 327, 329, 315, 170
1058, 333, 312, 160, 335
1059, 312, 192, 209, 193
1060, 312, 372, 313, 193
1061, 372, 312, 370, 209
1062, 209, 372, 312, 193
1063, 193, 209, 372, 206
1064, 58, 172, 193, 57
1065, 172, 312, 313, 193
1066, 193, 192, 57, 312
1067, 312, 57, 193, 172
1068, 172, 312, 57, 173
1069, 374, 394, 372, 314
1070, 331, 394, 314, 333
1071, 313, 333, 314, 372
1072, 372, 333, 314, 394
1073, 394, 372, 333, 392
1074, 314, 160, 313, 172
1075, 171, 160, 159, 314
1076, 331, 159, 160, 314
1077, 164, 171, 159, 314
1078, 315, 329, 327, 376
1079, 333, 160, 314, 331
1080, 372, 193, 206, 205
1081, 314, 372, 374, 205
1082, 314, 313, 372, 193
1083, 193, 372, 314, 205
1084, 205, 314, 193, 194
1085, 193, 172, 58, 59
1086, 194, 193, 59, 314
1087, 172, 193, 313, 314
1088, 314, 172, 193, 59
1089, 59, 314, 172, 171
1090, 315, 314, 329, 376
1091, 329, 380, 376, 394
1092, 394, 374, 376, 314
1093, 314, 376, 394, 329
1094, 329, 394, 314, 331
1095, 329, 314, 315, 170
1096, 170, 171, 164, 314
1097, 331, 164, 159, 314
1098, 421, 356, 357, 422
1099, 170, 314, 164, 329
1100, 329, 314, 164, 331
1101, 314, 194, 205, 195
1102, 314, 376, 315, 195
1103, 376, 314, 374, 205
1104, 205, 376, 314, 195
1105, 195, 205, 376, 202
1106, 60, 170, 195, 59
1107, 170, 314, 315, 195
1108, 195, 194, 59, 314
1109, 314, 59, 195, 170
1110, 170, 314, 59, 171
1111, 316, 382, 378, 376
1112, 358, 356, 357, 221
1113, 315, 327, 316, 376
1114, 376, 327, 316, 382
1115, 382, 376, 329, 380
1116, 316, 169, 163, 170
1117, 316, 327, 315, 170
1118, 329, 164, 170, 327
1119, 359, 358, 357, 221
1120, 316, 327, 170, 163
1121, 163, 327, 170, 164
1122, 316, 201, 196, 195
1123, 316, 315, 376, 195
1124, 201, 316, 378, 376
1125, 376, 201, 316, 195
1126, 195, 376, 201, 202
1127, 195, 170, 60, 61
1128, 170, 195, 315, 316
1129, 196, 195, 61, 316
1130, 316, 195, 61, 170
1131, 170, 61, 316, 169
1132, 297, 229, 270, 267
1133, 297, 267, 424, 356
1134, 355, 297, 356, 229
1135, 229, 297, 356, 267
1136, 267, 356, 229, 230
1137, 302, 424, 356, 297
1138, 356, 298, 355, 300
1139, 304, 298, 302, 356
1140, 356, 298, 302, 297
1141, 298, 356, 304, 300
1142, 420, 421, 425, 423
1143, 224, 70, 229, 71
1144, 224, 223, 71, 356
1145, 224, 229, 355, 356
1146, 356, 224, 229, 71
1147, 71, 229, 356, 230
1148, 356, 300, 355, 224
1149, 222, 223, 225, 356
1150, 304, 222, 225, 356
1151, 359, 421, 357, 422
1152, 224, 225, 356, 300
1153, 300, 225, 356, 304
1154, 421, 267, 266, 231
1155, 357, 356, 421, 231
1156, 356, 424, 421, 267
1157, 267, 421, 356, 231
1158, 231, 356, 267, 230
1159, 422, 356, 357, 358
1160, 421, 302, 424, 356
1161, 422, 304, 302, 356
1162, 422, 356, 302, 421
1163, 413, 359, 361, 414
1164, 358, 422, 356, 304
1165, 231, 72, 220, 71
1166, 356, 231, 357, 220
1167, 223, 220, 71, 356
1168, 356, 220, 71, 231
1169, 231, 71, 356, 230
1170, 221, 356, 357, 220
1171, 220, 223, 221, 356
1172, 304, 221, 222, 356
1173, 219, 220, 221, 359
1174, 362, 359, 361, 217
1175, 358, 356, 221, 304
1176, 421, 266, 263, 231
1177, 421, 263, 417, 359
1178, 357, 421, 359, 231
1179, 231, 421, 359, 263
1180, 263, 359, 231, 232
1181, 418, 417, 359, 421
1182, 359, 422, 357, 358
1183, 360, 422, 418, 359
1184, 359, 422, 418, 421
1185, 422, 359, 360, 358
1186, 221, 223, 222, 356
1187, 220, 72, 231, 73
1188, 220, 219, 73, 359
1189, 220, 231, 357, 359
1190, 359, 220, 231, 73
1191, 73, 231, 359, 232
1192, 359, 221, 357, 220
1193, 219, 221, 218, 359
1194, 360, 218, 221, 359
1195, 363, 413, 361, 414
1196, 363, 362, 361, 217
1197, 358, 221, 359, 360
1198, 413, 263, 262, 233
1199, 361, 359, 413, 233
1200, 359, 417, 413, 263
1201, 263, 413, 359, 233
1202, 233, 359, 263, 232
1203, 414, 359, 361, 362
1204, 413, 418, 417, 359
1205, 414, 360, 418, 359
1206, 414, 359, 418, 413
1207, 405, 363, 365, 406
1208, 362, 414, 359, 360
1209, 233, 74, 216, 73
1210, 359, 233, 361, 216
1211, 219, 216, 73, 359
1212, 359, 216, 73, 233
1213, 233, 73, 359, 232
1214, 217, 359, 361, 216
1215, 216, 219, 217, 359
1216, 360, 217, 218, 359
1217, 215, 216, 217, 363
1218, 366, 363, 365, 213
1219, 362, 359, 217, 360
1220, 413, 262, 259, 233
1221, 413, 259, 409, 363
1222, 361, 413, 363, 233
1223, 233, 413, 363, 259
1224, 259, 363, 233, 234
1225, 410, 409, 363, 413
1226, 363, 414, 361, 362
1227, 364, 414, 410, 363
1228, 363, 414, 410, 413
1229, 414, 363, 364, 362
1230, 217, 219, 218, 359
1231, 216, 74, 233, 75
1232, 216, 215, 75, 363
1233, 216, 233, 361, 363
1234, 363, 216, 233, 75
1235, 75, 233, 363, 234
1236, 363, 217, 361, 216
1237, 215, 217, 214, 363
1238, 364, 214, 217, 363
1239, 367, 405, 365, 406
1240, 367, 366, 365, 213
1241, 362, 217, 363, 364
1242, 405, 259, 258, 235
1243, 365, 363, 405, 235
1244, 363, 409, 405, 259
1245, 259, 405, 363, 235
1246, 235, 363, 259, 234
1247, 406, 363, 365, 366
1248, 405, 410, 409, 363
1249, 406, 364, 410, 363
1250, 406, 363, 410, 405
1251, 397, 367, 369, 398
1252, 366, 406, 363, 364
1253, 235, 76, 212, 75
1254, 363, 235, 365, 212
1255, 215, 212, 75, 363
1256, 363, 212, 75, 235
1257, 235, 75, 363, 234
1258, 213, 363, 365, 212
1259, 212, 215, 213, 363
1260, 364, 213, 214, 363
1261, 211, 212, 213, 367
1262, 370, 367, 369, 209
1263, 366, 363, 213, 364
1264, 405, 258, 255, 235
1265, 405, 255, 401, 367
1266, 365, 405, 367, 235
1267, 235, 405, 367, 255
1268, 255, 367, 235, 236
1269, 402, 401, 367, 405
1270, 367, 406, 365, 366
1271, 368, 406, 402, 367
1272, 367, 406, 402, 405
1273, 406, 367, 368, 366
1274, 213, 215, 214, 363
1275, 212, 76, 235, 77
1276, 212, 211, 77, 367
1277, 212, 235, 365, 367
1278, 367, 212, 235, 77
1279, 77, 235, 367, 236
1280, 367, 213, 365, 212
1281, 211, 213, 210, 367
1282, 368, 210, 213, 367
1283, 371, 397, 369, 398
1284, 371, 370, 369, 209
1285, 366, 213, 367, 368
1286, 397, 255, 254, 237
1287, 369, 367, 397, 237
1288, 367, 401, 397, 255
1289, 255, 397, 367, 237
1290, 237, 367, 255, 236
1291, 398, 367, 369, 370
1292, 397, 402, 401, 367
1293, 398, 368, 402, 367
1294, 398, 367, 402, 397
1295, 393, 371, 373, 394
1296, 370, 398, 367, 368
1297, 237, 78, 208, 77
1298, 367, 237, 369, 208
1299, 211, 208, 77, 367
1300, 367, 208, 77, 237
1301, 237, 77, 367, 236
1302, 209, 367, 369, 208
1303, 208, 211, 209, 367
1304, 368, 209, 210, 367
1305, 207, 208, 209, 371
1306, 374, 371, 373, 205
1307, 370, 367, 209, 368
1308, 397, 254, 251, 237
1309, 397, 251, 391, 371
1310, 369, 397, 371, 237
1311, 237, 397, 371, 251
1312, 251, 371, 237, 238
1313, 392, 391, 371, 397
1314, 371, 398, 369, 370
1315, 372, 398, 392, 371
1316, 371, 398, 392, 397
1317, 398, 371, 372, 370
1318, 209, 211, 210, 367
1319, 208, 78, 237, 79
1320, 208, 207, 79, 371
1321, 208, 237, 369, 371
1322, 371, 208, 237, 79
1323, 79, 237, 371, 238
1324, 371, 209, 369, 208
1325, 207, 209, 206, 371
1326, 372, 206, 209, 371
1327, 375, 393, 373, 394
1328, 375, 374, 373, 205
1329, 370, 209, 371, 372
1330, 393, 251, 250, 239
1331, 373, 371, 393, 239
1332, 371, 391, 393, 251
1333, 251, 393, 371, 239
1334, 239, 371, 251, 238
1335, 394, 371, 373, 374
1336, 393, 392, 391, 371
1337, 394, 372, 392, 371
1338, 394, 371, 392, 393
1339, 298, 353, 355, 300
1340, 374, 394, 371, 372
1341, 239, 80, 204, 79
1342, 371, 239, 373, 204
1343, 207, 204, 79, 371
1344, 371, 204, 79, 239
1345, 239, 79, 371, 238
1346, 205, 371, 373, 204
1347, 204, 207, 205, 371
1348, 372, 205, 206, 371
1349, 203, 204, 205, 375
1350, 292, 278, 291, 280
1351, 374, 371, 205, 372
1352, 393, 250, 247, 239
1353, 393, 247, 379, 375
1354, 373, 393, 375, 239
1355, 239, 393, 375, 247
1356, 247, 375, 239, 240
1357, 380, 379, 375, 393
1358, 375, 394, 373, 374
1359, 376, 394, 380, 375
1360, 375, 394, 380, 393
1361, 394, 375, 376, 374
1362, 205, 207, 206, 371
1363, 204, 80, 239, 81
1364, 204, 203, 81, 375
1365, 204, 239, 373, 375
1366, 375, 204, 239, 81
1367, 81, 239, 375, 240
1368, 375, 205, 373, 204
1369, 203, 205, 202, 375
1370, 376, 202, 205, 375
1371, 203, 202, 201, 375
1372, 291, 25, 278, 292
1373, 374, 205, 375, 376
1374, 381, 246, 241, 247
1375, 381, 241, 377, 375
1376, 375, 379, 381, 247
1377, 247, 381, 375, 241
1378, 241, 375, 247, 240
1379, 382, 377, 378, 376
1380, 381, 380, 379, 375
1381, 375, 376, 377, 381
1382, 381, 376, 377, 382
1383, 376, 381, 375, 380
1384, 380, 376, 381, 382
1385, 200, 241, 82, 81
1386, 241, 200, 377, 375
1387, 203, 200, 81, 375
1388, 375, 200, 81, 241
1389, 241, 81, 375, 240
1390, 377, 201, 378, 376
1391, 203, 201, 200, 375
1392, 377, 200, 201, 375
1393, 300, 353, 355, 224
1394, 202, 201, 375, 376
1395, 376, 201, 375, 377
1396, 297, 291, 293, 292
1397, 291, 280, 293, 292
1398, 93, 96, 25, 291
1399, 291, 93, 96, 94
1400, 289, 290, 284, 325
1401, 279, 353, 351, 276
1402, 299, 304, 298, 303
1403, 376, 329, 327, 382
*ELSET, ELSET="Solid Section1-1"
1, 2, 3, 4, 5, 6, 7, 8, 9, 10, 11, 12, 13, 14, 15, 16
17, 18, 19, 20, 21, 22, 23, 24, 25, 26, 27, 28, 29, 30, 31, 32
33, 34, 35, 36, 37, 38, 39, 40, 41, 42, 43, 44, 45, 46, 47, 48
49, 50, 51, 52, 53, 54, 55, 56, 57, 58, 59, 60, 61, 62, 63, 64
65, 66, 67, 68, 69, 70, 71, 72, 73, 74, 75, 76, 77, 78, 79, 80
81, 82, 83, 84, 85, 86, 87, 88, 89, 90, 91, 92, 93, 94, 95, 96
97, 98, 99, 100, 101, 102, 103, 104, 105, 106, 107, 108, 109, 110, 111, 112
113, 114, 115, 116, 117, 118, 119, 120, 121, 122, 123, 124, 125, 126, 127, 128
129, 130, 131, 132, 133, 134, 135, 136, 137, 138, 139, 140, 141, 142, 143, 144
145, 146, 147, 148, 149, 150, 151, 152, 153, 154, 155, 156, 157, 158, 159, 160
161, 162, 163, 164, 165, 166, 167, 168, 169, 170, 171, 172, 173, 174, 175, 176
177, 178, 179, 180, 181, 182, 183, 184, 185, 186, 187, 188, 189, 190, 191, 192
193, 194, 195, 196, 197, 198, 199, 200, 201, 202, 203, 204, 205, 206, 207, 208
209, 210, 211, 212, 213, 214, 215, 216, 217, 218, 219, 220, 221, 222, 223, 224
225, 226, 227, 228, 229, 230, 231, 232, 233, 234, 235, 236, 237, 238, 239, 240
241, 242, 243, 244, 245, 246, 247, 248, 249, 250, 251, 252, 253, 254, 255, 256
257, 258, 259, 260, 261, 262, 263, 264, 265, 266, 267, 268, 269, 270, 271, 272
273, 274, 275, 276, 277, 278, 279, 280, 281, 282, 283, 284, 285, 286, 287, 288
289, 290, 291, 292, 293, 294, 295, 296, 297, 298, 299, 300, 301, 302, 303, 304
305, 306, 307, 308, 309, 310, 311, 312, 313, 314, 315, 316, 317, 318, 319, 320
321, 322, 323, 324, 325, 326, 327, 328, 329, 330, 331, 332, 333, 334, 335, 336
337, 338, 339, 340, 341, 342, 343, 344, 345, 346, 347, 348, 349, 350, 351, 352
353, 354, 355, 356, 357, 358, 359, 360, 361, 362, 363, 364, 365, 366, 367, 368
369, 370, 371, 372, 373, 374, 375, 376, 377, 378, 379, 380, 381, 382, 383, 384
385, 386, 387, 388, 389, 390, 391, 392, 393, 394, 395, 396, 397, 398, 399, 400
401, 402, 403, 404, 405, 406, 407, 408, 409, 410, 411, 412, 413, 414, 415, 416
417, 418, 419, 420, 421, 422, 423, 424, 425, 426, 427, 428, 429, 430, 431, 432
433, 434, 435, 436, 437, 438, 439, 440, 441, 442, 443, 444, 445, 446, 447, 448
449, 450, 451, 452, 453, 454, 455, 456, 457, 458, 459, 460, 461, 462, 463, 464
465, 466, 467, 468, 469, 470, 471, 472, 473, 474, 475, 476, 477, 478, 479, 480
481, 482, 483, 484, 485, 486, 487, 488, 489, 490, 491, 492, 493, 494, 495, 496
497, 498, 499, 500, 501, 502, 503, 504, 505, 506, 507, 508, 509, 510, 511, 512
513, 514, 515, 516, 517, 518, 519, 520, 521, 522, 523, 524, 525, 526, 527, 528
529, 530, 531, 532, 533, 534, 535, 536, 537, 538, 539, 540, 541, 542, 543, 544
545, 546, 547, 548, 549, 550, 551, 552, 553, 554, 555, 556, 557, 558, 559, 560
561, 562, 563, 564, 565, 566, 567, 568, 569, 570, 571, 572, 573, 574, 575, 576
577, 578, 579, 580, 581, 582, 583, 584, 585, 586, 587, 588, 589, 590, 591, 592
593, 594, 595, 596, 597, 598, 599, 600, 601, 602, 603, 604, 605, 606, 607, 608
609, 610, 611, 612, 613, 614, 615, 616, 617, 618, 619, 620, 621, 622, 623, 624
625, 626, 627, 628, 629, 630, 631, 632, 633, 634, 635, 636, 637, 638, 639, 640
641, 642, 643, 644, 645, 646, 647, 648, 649, 650, 651, 652, 653, 654, 655, 656
657, 658, 659, 660, 661, 662, 663, 664, 665, 666, 667, 668, 669, 670, 671, 672
673, 674, 675, 676, 677, 678, 679, 680, 681, 682, 683, 684, 685, 686, 687, 688
689, 690, 691, 692, 693, 694, 695, 696, 697, 698, 699, 700, 701, 702, 703, 704
705, 706, 707, 708, 709, 710, 711, 712, 713, 714, 715, 716, 717, 718, 719, 720
721, 722, 723, 724, 725, 726, 727, 728, 729, 730, 731, 732, 733, 734, 735, 736
737, 738, 739, 740, 741, 742, 743, 744, 745, 746, 747, 748, 749, 750, 751, 752
753, 754, 755, 756, 757, 758, 759, 760, 761, 762, 763, 764, 765, 766, 767, 768
769, 770, 771, 772, 773, 774, 775, 776, 777, 778, 779, 780, 781, 782, 783, 784
785, 786, 787, 788, 789, 790, 791, 792, 793, 794, 795, 796, 797, 798, 799, 800
801, 802, 803, 804, 805, 806, 807, 808, 809, 810, 811, 812, 813, 814, 815, 816
817, 818, 819, 820, 821, 822, 823, 824, 825, 826, 827, 828, 829, 830, 831, 832
833, 834, 835, 836, 837, 838, 839, 840, 841, 842, 843, 844, 845, 846, 847, 848
849, 850, 851, 852, 853, 854, 855, 856, 857, 858, 859, 860, 861, 862, 863, 864
865, 866, 867, 868, 869, 870, 871, 872, 873, 874, 875, 876, 877, 878, 879, 880
881, 882, 883, 884, 885, 886, 887, 888, 889, 890, 891, 892, 893, 894, 895, 896
897, 898, 899, 900, 901, 902, 903, 904, 905, 906, 907, 908, 909, 910, 911, 912
913, 914, 915, 916, 917, 918, 919, 920, 921, 922, 923, 924, 925, 926, 927, 928
929, 930, 931, 932, 933, 934, 935, 936, 937, 938, 939, 940, 941, 942, 943, 944
945, 946, 947, 948, 949, 950, 951, 952, 953, 954, 955, 956, 957, 958, 959, 960
961, 962, 963, 964, 965, 966, 967, 968, 969, 970, 971, 972, 973, 974, 975, 976
977, 978, 979, 980, 981, 982, 983, 984, 985, 986, 987, 988, 989, 990, 991, 992
993, 994, 995, 996, 997, 998, 999, 1000, 1001, 1002, 1003, 1004, 1005, 1006, 1007, 1008
1009, 1010, 1011, 1012, 1013, 1014, 1015, 1016, 1017, 1018, 1019, 1020, 1021, 1022, 1023, 1024
1025, 1026, 1027, 1028, 1029, 1030, 1031, 1032, 1033, 1034, 1035, 1036, 1037, 1038, 1039, 1040
1041, 1042, 1043, 1044, 1045, 1046, 1047, 1048, 1049, 1050, 1051, 1052, 1053, 1054, 1055, 1056
1057, 1058, 1059, 1060, 1061, 1062, 1063, 1064, 1065, 1066, 1067, 1068, 1069, 1070, 1071, 1072
1073, 1074, 1075, 1076, 1077, 1078, 1079, 1080, 1081, 1082, 1083, 1084, 1085, 1086, 1087, 1088
1089, 1090, 1091, 1092, 1093, 1094, 1095, 1096, 1097, 1098, 1099, 1100, 1101, 1102, 1103, 1104
1105, 1106, 1107, 1108, 1109, 1110, 1111, 1112, 1113, 1114, 1115, 1116, 1117, 1118, 1119, 1120
1121, 1122, 1123, 1124, 1125, 1126, 1127, 1128, 1129, 1130, 1131, 1132, 1133, 1134, 1135, 1136
1137, 1138, 1139, 1140, 1141, 1142, 1143, 1144, 1145, 1146, 1147, 1148, 1149, 1150, 1151, 1152
1153, 1154, 1155, 1156, 1157, 1158, 1159, 1160, 1161, 1162, 1163, 1164, 1165, 1166, 1167, 1168
1169, 1170, 1171, 1172, 1173, 1174, 1175, 1176, 1177, 1178, 1179, 1180, 1181, 1182, 1183, 1184
1185, 1186, 1187, 1188, 1189, 1190, 1191, 1192, 1193, 1194, 1195, 1196, 1197, 1198, 1199, 1200
1201, 1202, 1203, 1204, 1205, 1206, 1207, 1208, 1209, 1210, 1211, 1212, 1213, 1214, 1215, 1216
1217, 1218, 1219, 1220, 1221, 1222, 1223, 1224, 1225, 1226, 1227, 1228, 1229, 1230, 1231, 1232
1233, 1234, 1235, 1236, 1237, 1238, 1239, 1240, 1241, 1242, 1243, 1244, 1245, 1246, 1247, 1248
1249, 1250, 1251, 1252, 1253, 1254, 1255, 1256, 1257, 1258, 1259, 1260, 1261, 1262, 1263, 1264
1265, 1266, 1267, 1268, 1269, 1270, 1271, 1272, 1273, 1274, 1275, 1276, 1277, 1278, 1279, 1280
1281, 1282, 1283, 1284, 1285, 1286, 1287, 1288, 1289, 1290, 1291, 1292, 1293, 1294, 1295, 1296
1297, 1298, 1299, 1300, 1301, 1302, 1303, 1304, 1305, 1306, 1307, 1308, 1309, 1310, 1311, 1312
1313, 1314, 1315, 1316, 1317, 1318, 1319, 1320, 1321, 1322, 1323, 1324, 1325, 1326, 1327, 1328
1329, 1330, 1331, 1332, 1333, 1334, 1335, 1336, 1337, 1338, 1339, 1340, 1341, 1342, 1343, 1344
1345, 1346, 1347, 1348, 1349, 1350, 1351, 1352, 1353, 1354, 1355, 1356, 1357, 1358, 1359, 1360
1361, 1362, 1363, 1364, 1365, 1366, 1367, 1368, 1369, 1370, 1371, 1372, 1373, 1374, 1375, 1376
1377, 1378, 1379, 1380, 1381, 1382, 1383, 1384, 1385, 1386, 1387, 1388, 1389, 1390, 1391, 1392
1393, 1394, 1395, 1396, 1397, 1398, 1399, 1400, 1401, 1402, 1403
*SURFACE, NAME="Geometric Group.3 (32)-1", TYPE=ELEMENT
31, S1
67, S1
68, S1
80, S1
84, S1
115, S1
161, S1
166, S1
254, S1
313, S1
323, S1
327, S1
332, S1
334, S1
337, S1
338, S1
342, S1
862, S1
1400, S1
251, S2
137, S3
172, S3
241, S3
258, S3
76, S4
78, S4
159, S4
178, S4
245, S4
252, S4
261, S4
326, S4
*MATERIAL, NAME="FC300 --- SHARED"
*ELASTIC, TYPE=ISOTROPIC
130000000., 0.27
*DENSITY
7.4e-06
*PLASTIC, HARDENING=ISOTROPIC
220594., 0.
*EXPANSION, TYPE=ISOTROPIC, ZERO=0.
1.2e-05
*SOLID SECTION, MATERIAL="FC300 --- SHARED", ELSET="Solid Section1-1"
1.
