*NODE
1, -180.000003814697, 119.999999236315, 300.
2, -180.000003814697, 119.999999236315, 330.
3, -180.000003814697, -7.63684511184692e-07, 300.
4, -180.000003814697, -7.63684511184692e-07, 330.
5, -3.814697265625e-06, 119.999999236315, 300.
6, -3.814697265625e-06, -7.63684511184692e-07, 300.
7, 59.9999961853027, -7.63684511184692e-07, 330.
8, 59.9999961853027, 119.999999236315, 330.
9, 30., -7.63684511184692e-07, 300.
10, 59.9999961853027, -7.63684511184692e-07, 300.
11, 59.9999961853027, 119.999999236315, 300.
12, 30., 119.999999236315, 300.
13, -3.814697265625e-06, 119.999999236315, 0.
14, -3.814697265625e-06, -7.63684511184692e-07, 0.
15, 30., -7.63684511184692e-07, 0.
16, 30., 119.999999236315, 0.
17, -180.000003814697, 99.9999992363155, 300.
18, -180.000003814697, 79.9999992363155, 300.
19, -180., 59.9999992363155, 300.
20, -180., 42.3606884273155, 300.
21, -180.000003814697, 19.9999992363155, 300.
22, -180., 96.1802992363155, 330.
23, -180., 81.1803608659586, 330.
24, -180., 64.7213224956018, 330.
25, -180., 36.1802992363155, 330.
26, -180., 21.1803608659587, 330.
27, -158.368779453379, 120., 300.
28, -137.639314623697, 120., 300.
29, -117.811528176015, 120., 300.
30, -101.459014623697, 120., 300.
31, -85.278680555411, 120., 300.
32, -60.0000038146973, 119.999999236315, 300.
33, -37.6393146236973, 120., 300.
34, -20.0000038146973, 119.999999236315, 300.
35, -20.0000038146973, -7.63684511184692e-07, 300.
36, -48.1966064758793, 0., 300.
37, -61.4590146236973, 0., 300.
38, -85.278680555411, 0., 300.
39, -100.000003814697, -7.63684511184692e-07, 300.
40, -118.540993005697, 0., 300.
41, -140.000003814697, -7.63684511184692e-07, 300.
42, -161.459014570123, 0., 300.
43, 0., 102.360688427315, 300.
44, 0., 77.8115235976334, 300.
45, 0., 61.4590100453155, 300.
46, -3.814697265625e-06, 39.9999992363155, 300.
47, 0., 21.4590100453155, 300.
48, 39.9999961853027, -7.63684511184692e-07, 330.
49, 16.4589453646596, 0., 330.
50, 1.45900699430273, 0., 330.
51, -20.0000038146973, -7.63684511184692e-07, 330.
52, -40.0000038146973, -7.63684511184692e-07, 330.
53, -66.1803038146973, 0., 330.
54, -84.7213270739835, 0., 330.
55, -100.000003814697, -7.63684511184692e-07, 330.
56, -120.000003814697, -7.63684511184692e-07, 330.
57, -140.000003814697, -7.63684511184692e-07, 330.
58, -162.360692738109, 0., 330.
59, 60., 17.6393100628422, 330.
60, 60., 41.4590100453155, 330.
61, 59.9999961853027, 59.9999992363155, 330.
62, 60., 78.5409884273155, 330.
63, 60., 101.459010045315, 330.
64, -160.000003814697, 119.999999236315, 330.
65, -140.000003814697, 119.999999236315, 330.
66, -118.540993005697, 120., 330.
67, -101.352578996658, 120., 330.
68, -81.4590146236973, 120., 330.
69, -58.5409930056973, 120., 330.
70, -35.278680555411, 120., 330.
71, -20.0000038146973, 119.999999236315, 330.
72, -4.72132707398353, 120., 330.
73, 17.6393069943027, 120., 330.
74, 39.9999961853027, 119.999999236315, 330.
75, 41.0311814741425, 0., 300.
76, 60., 16.1802992646745, 300.
77, 60., 37.1884538235197, 300.
78, 59.9999961853027, 59.9999992363155, 300.
79, 59.9999961853027, 79.9999992363155, 300.
80, 59.9999961853027, 99.9999992363155, 300.
81, 45.0149980926514, 120., 300.
82, 30., 27.5328573841334, 300.
83, 30., 37.6393100453155, 300.
84, 30., 58.3687748749976, 300.
85, 30., 79.9999992363155, 300.
86, 30., 99.9999992363155, 300.
87, 0., 120., 26.4590138600128
88, 0., 120., 47.3606922420128
89, 0., 120., 66.8034369434169
90, 0., 120., 89.721326310299
91, -3.814697265625e-06, 119.999999236315, 105.000003051013
92, 0., 120., 128.819703051013
93, 0., 120., 146.631227412331
94, 0., 120., 167.360692242013
95, -3.814697265625e-06, 119.999999236315, 185.000003051013
96, 0., 120., 207.360692242013
97, -3.814697265625e-06, 119.999999236315, 225.000003051013
98, 0., 120., 247.360692242013
99, 0., 120., 261.631159276156
100, -3.814697265625e-06, 119.999999236315, 285.000003051013
101, -3.814697265625e-06, 99.9999992363155, 0.
102, 0., 78.5409884273155, 0.
103, 0., 59.9999992363155, 0.
104, 0., 41.4590100453155, 0.
105, -3.814697265625e-06, 19.9999992363155, 0.
106, -3.814697265625e-06, -7.63684511184692e-07, 25.0000030510128
107, 0., 0., 47.1884786896949
108, 0., 0., 63.5409922420127
109, 0., 0., 86.3525782329739
110, 0., 0., 103.540992242013
111, 0., 0., 126.352578232974
112, 0., 0., 143.540992242013
113, -3.814697265625e-06, -7.63684511184692e-07, 165.000003051013
114, 0., 0., 183.540992242013
115, 0., 0., 206.352578232974
116, 0., 0., 223.540992242013
117, 0., 0., 246.413419734737
118, 0., 0., 263.064695364272
119, 0., 0., 282.187500764961
120, 19.9999961853027, -7.63684511184692e-07, 0.
121, 30., 19.9999992363155, 0.
122, 30., 39.9999992363155, 0.
123, 30., 59.9999992363155, 0.
124, 30., 79.9999992363155, 0.
125, 30., 98.5409884273155, 0.
126, 21.9098469129457, 120., 0.
127, 30., 0., 19.9532926472591
128, 30., 0., 37.3266925878184
129, 30., 0., 59.82367932263
130, 30., 0., 81.4598746471722
131, 30., 0., 100.930798530035
132, 30., 0., 122.090103910669
133, 30., 0., 141.165382340295
134, 30., 0., 162.186696476844
135, 30., 0., 181.180303051013
136, 30., 0., 202.18845763487
137, 30., 0., 219.721326310299
138, 30., 0., 239.032562828017
139, 30., 0., 263.540992242013
140, 30., 0., 283.540992242013
141, 30., 120., 19.8442266829622
142, 30., 119.999999236315, 45.0000030510128
143, 30., 119.999999236315, 65.0000030510128
144, 30., 119.999999236315, 85.0000030510128
145, 30., 119.999999236315, 105.000003051013
146, 30., 120., 126.459013860013
147, 30., 120., 146.459013860013
148, 30., 119.999999236315, 165.000003051013
149, 30., 119.999999236315, 185.000003051013
150, 30., 119.999999236315, 205.000003051013
151, 30., 119.999999236315, 225.000003051013
152, 30., 119.999999236315, 245.000003051013
153, 30., 120., 263.540992242013
154, 30., 120., 286.094260037096
155, -20.7287966331625, 99.4999231386892, 300.
156, -21.792523572854, 77.8540981554155, 300.
157, -43.8541027337973, 99.564533422413, 300.
158, -41.0299109602071, 78.3499608614734, 300.
159, -39.0000038146973, 60.8058683108076, 300.
160, -59.1459048955973, 79.3777834892369, 300.
161, -57.1459048955973, 57.8526268664783, 300.
162, -58.1832313537598, 40.1751779990265, 300.
163, -78.5649475051641, 64.5067072023907, 300.
164, -80.0000038146973, 39.9999992363155, 300.
165, -77.8541027337973, 18.4716850135436, 300.
166, -103.760755160313, 40.6949636755291, 300.
167, -97.4644184581504, 20.207127928712, 300.
168, -120.479786965994, 20.8540981554155, 300.
169, -143.177823939047, 17.5527833430024, 300.
170, -160.500745702534, 19.1068708662998, 300.
171, -159.452870643763, 39.1914168371527, 300.
172, -138.35863788119, 57.2549824671173, 300.
173, -138.688719199522, 38.284286316385, 300.
174, -159.611546964164, 61.7364651355078, 300.
175, -159.145904895597, 80.1913673198404, 300.
176, -143.50012949046, 98.3041198207475, 300.
177, -140.13531837017, 79.1459003172155, 300.
178, -159.895904895597, 99.2487540411076, 300.
179, -122.960508289601, 103.211726700561, 300.
180, -122.500003814697, 81.6637540132365, 300.
181, -99.0940555379631, 75.3671698865197, 300.
182, -96.010240887901, 55.1459003172155, 300.
183, -120.854102733797, 59.8082807360206, 300.
184, -78.1036456670531, 103.763930317215, 300.
185, -79.9552819815142, 84.8540981554155, 300.
186, -100.030581947426, 100.469008144829, 300.
187, -63.6641997660555, 96.8065535310962, 300.
188, -121.390944469489, 42.6516062399979, 300.
189, -57.8541027337973, 22.4630572985706, 300.
190, -40.2986983979822, 20.3819692363155, 300.
191, -17.2822332354279, 22.2514684928483, 300.
192, -18.6832313537598, 40.5153547195867, 300.
193, -18.5141843615781, 58.1459003172155, 300.
194, -39.2836731113882, 41.1361831578959, 300.
195, -161.854102733797, 100.299015204996, 330.
196, -143.500003814697, 100.056970555045, 330.
197, -138.560907238037, 78.4999992363155, 330.
198, -160.500003814697, 80.4673547627985, 330.
199, -158.619266140107, 60.2739581755879, 330.
200, -139.598677571558, 56.6180292363155, 330.
201, -137.46538820014, 37.8111575406022, 330.
202, -159.992740027187, 40.1459003172155, 330.
203, -160.799977397858, 20.3540981554155, 330.
204, -141.707917420827, 17.9999992363155, 330.
205, -119.145904895597, 19.5497912449449, 330.
206, -99.3899756795685, 19.6247752734875, 330.
207, -79.4838623830941, 18.8989404570255, 330.
208, -60.7639348955973, 20.6191831169737, 330.
209, -36.1459048955973, 17.534457288164, 330.
210, -19.2360727337973, 20.9351182038853, 330.
211, -1.10410273379727, 20.2614342899556, 330.
212, 18.4999961853027, 18.5974270646406, 330.
213, 39.7309407288258, 20.3959003172155, 330.
214, 39.0951410053443, 41.6180292363155, 330.
215, 39.3724589681683, 59.7450627601376, 330.
216, 39.1458972662027, 79.9428092903352, 330.
217, 40.7499961853027, 99.2499992363155, 330.
218, 19.36811793543, 99.1459003172155, 330.
219, 20.3608539844677, 79.1459003172155, 330.
220, 0.24780851720461, 101.104098155415, 330.
221, -0.00534727408393379, 79.1459003172155, 330.
222, 0.946966006961482, 59.1588566262783, 330.
223, -21.5053230802504, 78.0220746577418, 330.
224, -18.1271981884138, 59.0820066438794, 330.
225, -19.2032834592517, 39.7033042652623, 330.
226, -39.117533733055, 63.1677849209805, 330.
227, -38.9590234738152, 40.3273565377998, 330.
228, -60.0000202723517, 58.9999992363155, 330.
229, -60.0000038146973, 39.9999992363155, 330.
230, -79.0004968772776, 64.7639303172155, 330.
231, -80.2927340486326, 40.7682603003649, 330.
232, -98.7102061099855, 60.930845063032, 330.
233, -103.763934895597, 40.7831888913223, 330.
234, -120.854102733797, 59.9912703013816, 330.
235, -119.579470356458, 41.0662808695458, 330.
236, -95.8280907200233, 77.5339592232035, 330.
237, -117.000003814697, 79.7223504852299, 330.
238, -98.8809648107747, 95.497740465759, 330.
239, -121.145904895597, 101.222080468992, 330.
240, -80.6072743501293, 102.145900317215, 330.
241, -60.0192596773496, 98.1180292363155, 330.
242, -59.6115463839876, 76.8540981554155, 330.
243, -80.4348029035108, 83.8540981554155, 330.
244, -41.0000038146973, 100.949999236315, 330.
245, -40.1334845855426, 82.7639303172155, 330.
246, -19.4485265737068, 99.3896503172155, 330.
247, 19.1930502977885, 60.2918103603369, 330.
248, 19.7945046928582, 41.0207648220822, 330.
249, 0.6141255933338, 39.3819692363155, 330.
250, 42.3923055497429, 20.8540982292847, 300.
251, 38.654170303677, 39.1459003172155, 300.
252, 43.8540951044027, 60.0114288209215, 300.
253, 40.6040951044027, 80.0257045450613, 300.
254, 42.9999961853027, 98.212049504458, 300.
255, -180., 71.4198951431977, 314.1459010809
256, -170.067842340642, 120., 314.1459010809
257, 0., 19.1459003172155, 24.9805509406411
258, 0., 21.1999373775927, 45.7014610339918
259, 0., 19.3363695822922, 66.0695011595465
260, 0., 20.7663418777961, 84.1459041319128
261, 0., 18.8144753414255, 105.827911726162
262, 0., 20.8540981554156, 124.290747719856
263, 0., 19.1459003172155, 145.765235043597
264, 0., 20.8540981554155, 164.233416754909
265, 0., 19.1459003172155, 185.749400678619
266, 0., 20.8540981554155, 204.885502216647
267, 0., 19.1631104064569, 225.203975045804
268, 0., 20.9378794391045, 244.569034389321
269, 0., 20.3955560586499, 264.52848808774
270, 0., 22.797989299857, 281.970277449252
271, 0., 39.9522210505361, 285.854101970113
272, 0., 58.6168884913216, 283.000003051013
273, 0., 59.6180292363155, 265.267128554194
274, 0., 41.1563902799293, 264.61054228931
275, 0., 60.0145068599765, 247.000003051013
276, 0., 40.1696627494727, 245.736899525446
277, 0., 60.2397516536943, 228.854101970113
278, 0., 40.0194784880747, 225.381775851421
279, 0., 60.0554477581305, 207.881973051013
280, 0., 40.0030567454196, 205.371098779553
281, 0., 60.1556501871736, 188.854101970113
282, 0., 39.1461572863458, 186.109871213803
283, 0., 59.145972360352, 168.277952483316
284, 0., 39.1459003172155, 164.676612173479
285, 0., 60.2088285019763, 148.854101970113
286, 0., 39.1652289482349, 146.181375997233
287, 0., 59.2086995396986, 127.635886457402
288, 0., 39.3689978649044, 124.295388667995
289, 0., 62.6092824954258, 108.194290794035
290, 0., 40.8540981554155, 104.64027310612
291, 0., 56.1459003172155, 85.2577889202464
292, 0., 36.4835817075042, 87.8554509370057
293, 0., 78.1459003172155, 84.5557703931226
294, 0., 79.1737530475693, 63.5580116540573
295, 0., 59.5300638566711, 65.0736930108151
296, 0., 100.142804982922, 65.3365158075612
297, 0., 100.799422694446, 43.7544222130781
298, 0., 79.2400050453558, 41.4741708639363
299, 0., 79.8422812247518, 23.3541019701128
300, 0., 63.2677906336132, 48.5113960422782
301, 0., 59.4544476674694, 28.8467906891203
302, 0., 41.8845653043028, 47.0000030510128
303, 0., 39.7907764417213, 24.7639341319128
304, 0., 99.9556185161775, 23.9657072684477
305, 0., 100.849647312296, 84.1215905001924
306, 0., 99.6388832558705, 103.334208780118
307, 0., 99.993748688773, 124.089446834653
308, 0., 80.2811765104468, 122.000003051013
309, 0., 82.8459886534002, 102.000303217738
310, 0., 99.7725607835543, 144.062344881909
311, 0., 80.8625612495661, 142.678305947615
312, 0., 99.8729434549941, 164.519653421383
313, 0., 80.0008236776672, 162.000003051013
314, 0., 99.3819696633556, 183.983320822294
315, 0., 80.0000104169182, 182.000003051013
316, 0., 99.9999992363154, 204.833336384346
317, 0., 80.0000307141966, 202.000003051013
318, 0., 99.3268730969159, 224.965046926639
319, 0., 79.6799510570428, 222.854101970113
320, 0., 99.3125669838821, 245.628464054089
321, 0., 79.1421724672016, 241.833369031254
322, 0., 103.0441021569, 265.800779475613
323, 0., 79.6497541471243, 264.903453088572
324, 0., 96.1459003172155, 284.81345182386
325, 0., 77.906689959602, 285.580557891155
326, 0., 39.6270692463795, 66.8541019701128
327, 16.2050315576165, 99.129558705979, 0.
328, 17.8622022834052, 80.0805338722696, 0.
329, 17.9999961853027, 58.6914794728642, 0.
330, 18.0351765711482, 37.7517325032511, 0.
331, 17.6458978384073, 17.2392945831085, 0.
332, 30., 99.9999992363155, 25.0000030510128
333, 30., 99.9188232763519, 45.0514924245317
334, 30., 80.779394315561, 44.9292983154836
335, 30., 80.0195962039745, 21.1459041319128
336, 30., 59.5893548541035, 44.6172507183706
337, 30., 59.4486099980838, 24.1459041319128
338, 30., 39.8758162335667, 45.0000030510128
339, 30., 39.9827469946806, 21.1459041319128
340, 30., 16.7791979918905, 47.9720017743873
341, 30., 20.478370512962, 24.1459041319128
342, 30., 22.2794763954768, 68.8541019701128
343, 30., 17.3897196599476, 88.8541019701128
344, 30., 22.6762236689641, 108.854101970113
345, 30., 17.9149842427371, 128.145904131913
346, 30., 22.7386069644909, 148.854101970113
347, 30., 18.0493080445064, 168.236071970113
348, 30., 22.7469925540032, 188.854101970113
349, 30., 18.146918428641, 208.854101970113
350, 30., 22.9214531418613, 228.818580471442
351, 30., 18.5403723620427, 247.145904131913
352, 30., 20.7707457729519, 267.604101970113
353, 30., 19.4722311939559, 286.39256319565
354, 30., 39.6546404370689, 284.500003051013
355, 30., 60.80647913547, 283.772264535807
356, 30., 59.6867040212652, 265.354101970113
357, 30., 40.1584358248888, 264.145904131913
358, 30., 60.0123270869204, 244.904762211393
359, 30., 40.0354172907107, 245.562281142098
360, 30., 59.8641952797746, 224.336455667172
361, 30., 40.3064732810429, 225.465593147098
362, 30., 60.4392243845924, 204.145904131913
363, 30., 39.828116233404, 206.246260478414
364, 30., 59.9999992363155, 185.000003051013
365, 30., 40.1301788884098, 185.137271117419
366, 30., 59.9999992363155, 165.000003051013
367, 30., 40.1319436672656, 165.952246501363
368, 30., 59.1459003172155, 145.503651081804
369, 30., 40.4736891839043, 145.577080437482
370, 30., 61.4545343837078, 123.584658519039
371, 30., 40.2642245155896, 126.787136233632
372, 30., 59.1481910217594, 103.472135376941
373, 30., 39.571519328921, 105.127873144592
374, 30., 62.7491461160972, 81.1459041319128
375, 30., 39.1459003172155, 85.7879646974112
376, 30., 81.9999992363155, 106.990829692585
377, 30., 79.9622810483276, 85.3539243949083
378, 30., 98.9999992363155, 124.001352578678
379, 30., 103.854098155415, 105.103147702644
380, 30., 79.9760815603593, 128.854101970113
381, 30., 97.7376459978043, 86.1459041319128
382, 30., 99.7598941141393, 64.3828709565573
383, 30., 99.4930656629727, 146.104270661071
384, 30., 80.7176693537112, 144.145904131913
385, 30., 99.9999992363155, 165.000003051013
386, 30., 80.8540981554155, 165.016303293406
387, 30., 99.9999992363155, 185.000003051013
388, 30., 80.5278669103869, 184.476072661056
389, 30., 99.9927163573375, 205.002054013244
390, 30., 80.8540981554155, 205.000336295255
391, 30., 99.9708677204034, 225.00820689994
392, 30., 80.56839387879, 224.151396331776
393, 30., 99.9999992363155, 245.000003051013
394, 30., 80.6481456374941, 245.0653067391
395, 30., 100.145900317216, 265.124468194991
396, 30., 78.4999992363155, 266.247354564592
397, 30., 99.1459003172155, 284.861112301304
398, 30., 80.3252052399474, 283.836453173286
399, 30., 58.5563085500706, 63.5000030510127
400, 30., 39.9298172671561, 65.6026581234878
401, 30., 78.56669818936, 65.0416387290692
402, -130.287116551011, 120., 315.8540989191
403, 15.8540951044027, 0., 307.999548850939
404, 41.5184048028804, 0., 308.854101970113
405, 16.4678111443692, 0., 283.368280616803
406, 17.4999961853027, 0., 264.953830846142
407, 17.8651872471082, 0., 245.088999329368
408, 19.1458972662027, 0., 225.097646657493
409, 18.8958972662027, 0., 205.179652829147
410, 19.1458972662027, 0., 184.865492121545
411, 19.1458972662027, 0., 165.038938267854
412, 19.1458972662027, 0., 144.865181347962
413, 19.1458972662027, 0., 124.99805462288
414, 19.1458974569376, 0., 105.373599912727
415, 19.1458972662027, 0., 85.0562181171055
416, 19.9999961853027, -7.63684511184692e-07, 65.0000030510128
417, 18.1458972662027, 0., 45.230475347177
418, 18.1108574384125, 0., 23.7282466737129
419, 17.2497189228205, 120., 307.402698729881
420, -88.4792382289306, 0., 314.937629050595
421, -132.854102733797, 0., 314.842165239429
422, -166.289766697169, 0., 315.8540989191
423, 10.0425714486315, 0., 12.7360704446064
424, 60., 69.3665759458167, 315.8540989191
425, 60., 88.9792336505489, 315.15316884617
426, -102.004008047305, 120., 310.854101970113
427, 30., 109.145900317215, 12.3307169297849
428, -150.854102733797, 120., 314.725485010988
429, 0., 90.0944532395642, 12.2360704446063
430, 16.1458972662027, 120., 284.328700379374
431, 17.4231202187537, 120., 261.737318530868
432, 16.9697996255872, 120., 245.296399698429
433, 16.9999961853027, 120., 224.983031109066
434, 16.9999961853027, 120., 204.997698211
435, 16.9999961853027, 120., 184.99998295825
436, 16.9999961853027, 120., 165.000000279596
437, 16.8958972662027, 120., 145.667188027372
438, 16.9999961853027, 120., 125.000003051013
439, 16.9999961853027, 120., 105.000003051013
440, 16.9999961853027, 120., 85.0000030510128
441, 17.1458972662027, 120., 65.1944683645089
442, 17.7639282198771, 120., 45.5923409296366
443, 20.8540951044027, 120., 24.2084713997113
444, -164.615387843205, 81.538460774777, 320.769230769231
445, 0., 65.7361275192865, 13.1387422223525
446, 7.14589726620273, 120., 316.13948546259
447, -8.14590489559727, 120., 315.026874576317
448, -121.480523320477, 106.774079387982, 311.7556822689
449, -107.931621368556, 79.084162320069, 322.612664480342
450, -92.7660133227034, 77.5334623394911, 323.507399105314
451, 0., 9.39110568765511, 11.6459026064064
452, 0., 109.145900317215, 12.5000015255064
453, -150.854102733797, 0., 314.746860376639
454, -58.2490514557537, 79.2605246092031, 313.207769645949
455, 9.14589726620274, 120., 12.525462805872
456, 30., 9.99999942723662, 11.71875113342
457, -79.4154552857753, 85.622805250512, 315.445811915277
458, 60., 31.3540981554155, 314.920948494461
459, 60., 49.1459003172155, 314.517014338465
460, -180., 109.145900317215, 315.811298047425
461, -180., 50.1535932728083, 315.8540989191
462, -70.389930208686, 0., 315.8540989191
463, -40.1701434163788, 83.1795328791632, 316.430873026926
464, 19.2176799018911, 72.5652423049658, 312.861962137687
465, 20.9999968210856, 100.000085012624, 312.351852587762
466, 0.343233015965858, 77.174971816499, 317.068548017288
467, 51.3458597196976, 120., 315.8540989191
468, 26.4218536340315, 120., 316.760487005562
469, 60., 109.027247250993, 314.1459010809
470, 39.015877330268, 41.1227994251644, 308.001579296993
471, 38.1500573496849, 19.717794604136, 311.374332165369
472, 18.6627986259965, 18.919477137714, 303.780950105157
473, 20.1233858280283, 14.4132244921596, 289.535104894873
474, 15.0501252447332, 18.9322131053675, 272.241048995184
475, 17.3726879410315, 19.1833935522709, 247.504331507977
476, 19.7877608451262, 13.2090897845177, 230.428809526967
477, 16.4293451855931, 18.2759225104314, 208.854151554378
478, 20.6794867446238, 14.0546755347791, 190.71366384409
479, 16.4045488934422, 18.2716674322935, 168.852887233934
480, 20.7026308751791, 14.0617050297028, 150.655008743672
481, 17.8795641742745, 17.1775207347012, 129.101235608263
482, 20.1429487237589, 14.3933747385732, 109.436341511085
483, 17.15033756076, 16.5528350873482, 90.5455683431441
484, 20.7423117265539, 13.2718733660844, 69.9166349010636
485, 17.1421183859574, 16.5475957470316, 50.009044531495
486, 20.6812959568869, 13.5306491585428, 26.0750041541229
487, 30., 89.2352989964808, 11.8958413900356
488, 30., 70.8540981554155, 12.45962827202
489, 28.7629485838156, 0., 315.268948567538
490, 16.6395932563139, 95.4785911058244, 18.6600110033088
491, 14.756357426637, 79.4223197161337, 23.9400837747152
492, 19.9999961853027, 99.9999992363155, 45.0000030510128
493, 15.9571139244818, 79.5744217762986, 44.1494286155585
494, 15.8905272441029, 58.5232988129036, 46.1784632853038
495, 15.6741744948832, 78.4701027511431, 64.278046749739
496, 14.9866279430649, 58.6856554282526, 65.1843610422452
497, 14.0786422908246, 37.0514521856242, 68.8485537707432
498, 15.4869705101858, 54.7529327423373, 86.1502264544192
499, 15.059308293931, 38.1991980362672, 87.0525107840417
500, 15.6480510236903, 38.0663616079135, 104.917449561453
501, 17.2029346757295, 65.6956855170393, 101.290158630712
502, 16.5961502466446, 80.5961530824693, 105.963678264688
503, 17.0262623833865, 61.6604067116181, 122.612095068225
504, 19.0799594745962, 81.0088689148654, 122.592664116951
505, 18.833451859217, 99.4114617869228, 124.512492375708
506, 15.0760602663285, 81.9696468618693, 141.775120929493
507, 16.9043001190441, 99.891719941808, 144.424764723795
508, 19.9999961853027, 99.9999992363155, 165.000003051013
509, 15.9597172696972, 79.9987325986358, 163.596295529998
510, 16.9778496266773, 99.9995825923641, 184.50058811319
511, 14.8671092041558, 79.9974981818827, 182.71437456622
512, 13.19432253479, 60.618553569615, 183.118411818188
513, 16.3126483596602, 79.9885429945867, 203.774775578486
514, 16.2049072702045, 59.943051027286, 203.377952609433
515, 15.132305171092, 39.5931763517945, 205.75255809873
516, 13.3223115893516, 60.766305502036, 222.65771824953
517, 14.0766815298069, 39.6260903253071, 225.779805527331
518, 15.2162359189891, 40.014622498918, 245.317298208391
519, 16.0603188205618, 59.8806928825497, 243.731241108502
520, 16.1489007525076, 79.6576120055058, 244.269163435732
521, 13.4423920944424, 58.7764937673479, 264.191647524273
522, 14.0292120108826, 78.2839507600688, 266.268132775307
523, 14.9887390026478, 102.381093277271, 267.895184487058
524, 15.9470940779603, 69.9320474288313, 292.057318274152
525, 16.739596992094, 94.248395691585, 287.678498295223
526, 19.9999961853027, 99.9999992363155, 245.000003051013
527, 17.3006443423677, 99.9981305225095, 224.609751543465
528, 19.9999961853027, 99.9999992363155, 205.000003051013
529, 12.5765828287382, 41.0667582824524, 264.544955494014
530, 17.2803296362039, 50.74003016158, 286.023562458548
531, 18.0620374919064, 29.9995094164748, 287.213328291481
532, 20.1508902154932, 33.5075200964073, 308.221625594086
533, 18.9199101595914, 51.0699942032011, 311.888385078282
534, -180., 31.1040981554155, 314.867735562347
535, -0.822942498080157, 37.1514077091784, 316.036496814645
536, -180., 86.1459003172155, 314.705791250295
537, -28.7444164304333, 0., 314.878778818724
538, -49.0000038146973, 0., 315.
539, -70.8541027337973, 120., 315.117828023128
540, -30.8124360671306, 120., 314.946257356367
541, -105.293379308335, 0., 315.8540989191
542, -139.890999096186, 39.1564740795163, 308.385095652051
543, 30., 49.8528309822337, 11.8596051434947
544, 30., 30.8528309822337, 11.7728018136051
545, -161.770067205016, 41.0989930411114, 315.176205527476
546, 0., 29.7639303172155, 12.4696068757972
547, 0., 53.8540981554155, 12.9212365255184
548, -47.1459048955973, 120., 315.080692395316
549, 50.2227655841025, 0., 318.263932606406
550, -105.375974774384, 41.8754274544671, 313.372813224312
551, 60., 14.1634458471859, 314.7639310809
552, -7.73697410461373, 0., 314.285167901581
553, -79.5994701695775, 40.1129981194536, 315.774911817251
554, -180., 9.82393306528412, 314.1459010809
555, -38.8723895402507, 40.2254211737434, 315.434251418896
556, -38.5427783264452, 62.1874058086289, 309.145868995261
557, 16.8038774982983, 79.9907110494052, 223.556317142223
558, 14.1741155095532, 37.5324209612685, 186.697822965236
559, 15.1162481696944, 39.5801249827484, 165.609820980094
560, 16.0488417442825, 59.953563115643, 163.266968594496
561, 14.2441346613019, 37.6349926570174, 146.661157169323
562, 12.9840752181558, 61.5004756118971, 142.822257439528
563, 18.7273774143873, 97.5569193255924, 106.147864301517
564, 17.3940653053697, 97.1444629318392, 85.0869860898043
565, 16.7673286624269, 99.2893565952614, 65.2326044045966
566, 15.4664890497951, 39.8360285752269, 125.831662307589
567, 20.0275306943153, 74.0601572831836, 90.712064550624
568, 14.9801999146468, 39.2952093977735, 46.3818492412115
569, 13.7499969005585, 57.4999992363155, 18.125001906883
570, 14.273101964334, 37.4212089587071, 24.7581103308597
*NSET, NSET="Fixed (26)-1"
13, 14, 15, 16, 101, 102, 103, 104, 105, 120, 121, 122, 123, 124, 125, 126
327, 328, 329, 330, 331
*NSET, NSET="Point_A (29)-1"
19
*NSET, NSET="Point_O (32)-1"
103
*ELEMENT, TYPE=C3D4
1, 218, 220, 73, 465
2, 180, 197, 234, 237
3, 422, 170, 453, 42
4, 64, 22, 2, 460
5, 220, 465, 218, 466
6, 22, 460, 178, 17
7, 548, 241, 157, 244
8, 304, 101, 327, 429
9, 467, 469, 63, 254
10, 535, 532, 212, 47
11, 428, 28, 196, 176
12, 21, 554, 3, 42
13, 453, 169, 203, 204
14, 69, 548, 244, 241
15, 21, 554, 42, 170
16, 453, 170, 422, 203
17, 43, 100, 5, 430
18, 447, 246, 540, 155
19, 170, 169, 203, 453
20, 554, 422, 42, 170
21, 169, 453, 170, 42
22, 422, 3, 554, 42
23, 7, 59, 549, 48
24, 220, 43, 465, 466
25, 324, 100, 43, 430
26, 525, 324, 43, 430
27, 471, 76, 551, 404
28, 430, 43, 525, 465
29, 419, 430, 465, 43
30, 545, 174, 172, 171
31, 35, 191, 552, 6
32, 551, 549, 10, 7
33, 404, 250, 471, 76
34, 220, 246, 72, 447
35, 447, 43, 246, 155
36, 419, 465, 446, 43
37, 254, 63, 217, 425
38, 213, 59, 48, 549
39, 250, 471, 9, 404
40, 200, 174, 172, 545
41, 405, 47, 403, 473
42, 119, 47, 6, 405
43, 10, 76, 404, 551
44, 218, 465, 217, 216
45, 422, 453, 203, 58
46, 472, 473, 403, 47
47, 6, 47, 403, 405
48, 211, 47, 50, 210
49, 6, 191, 552, 47
50, 537, 210, 552, 35
51, 403, 47, 552, 50
52, 50, 210, 552, 51
53, 50, 47, 211, 212
54, 50, 49, 403, 212
55, 552, 47, 403, 6
56, 50, 403, 47, 212
57, 212, 403, 47, 472
58, 9, 472, 489, 471
59, 353, 140, 9, 473
60, 353, 9, 82, 473
61, 140, 405, 9, 473
62, 9, 471, 489, 404
63, 9, 473, 405, 403
64, 403, 9, 473, 472
65, 472, 9, 473, 82
66, 489, 472, 9, 403
67, 82, 472, 9, 471
68, 471, 9, 82, 250
69, 175, 196, 197, 177
70, 157, 463, 241, 454
71, 404, 75, 76, 10
72, 174, 177, 175, 197
73, 446, 465, 220, 43
74, 213, 404, 489, 471
75, 422, 203, 26, 58
76, 74, 217, 218, 465
77, 213, 59, 549, 551
78, 10, 551, 404, 549
79, 331, 105, 14, 451
80, 458, 471, 551, 213
81, 430, 154, 86, 397
82, 551, 7, 59, 549
83, 430, 154, 12, 86
84, 397, 525, 86, 430
85, 81, 80, 469, 254
86, 86, 430, 525, 465
87, 86, 216, 465, 85
88, 465, 86, 430, 12
89, 230, 450, 457, 181
90, 465, 430, 419, 12
91, 444, 196, 195, 198
92, 465, 74, 217, 86
93, 468, 465, 419, 12
94, 73, 465, 419, 468
95, 420, 462, 207, 54
96, 465, 74, 73, 218
97, 327, 443, 452, 304
98, 460, 64, 22, 178
99, 126, 452, 13, 101
100, 11, 469, 8, 467
101, 11, 80, 469, 81
102, 469, 467, 11, 81
103, 216, 253, 84, 85
104, 443, 327, 427, 332
105, 546, 330, 105, 104
106, 175, 196, 178, 444
107, 255, 175, 19, 18
108, 444, 174, 175, 197
109, 196, 178, 176, 175
110, 534, 171, 21, 20
111, 232, 550, 233, 234
112, 175, 174, 255, 19
113, 23, 24, 255, 444
114, 19, 255, 199, 174
115, 536, 175, 255, 18
116, 199, 444, 24, 198
117, 197, 200, 199, 174
118, 541, 206, 420, 167
119, 177, 197, 174, 200
120, 200, 174, 177, 172
121, 22, 178, 195, 444
122, 175, 17, 18, 536
123, 255, 444, 536, 23
124, 534, 25, 26, 545
125, 178, 17, 536, 22
126, 22, 536, 444, 23
127, 178, 196, 195, 444
128, 444, 196, 197, 175
129, 196, 175, 176, 177
130, 201, 169, 542, 168
131, 197, 199, 444, 174
132, 171, 173, 542, 169
133, 206, 56, 168, 541
134, 448, 179, 186, 180
135, 172, 542, 171, 173
136, 461, 545, 534, 20
137, 26, 545, 203, 170
138, 171, 170, 534, 21
139, 21, 170, 534, 26
140, 545, 170, 171, 169
141, 545, 169, 171, 542
142, 203, 169, 170, 545
143, 201, 545, 169, 204
144, 542, 545, 169, 201
145, 204, 545, 169, 203
146, 214, 84, 215, 252
147, 19, 545, 171, 174
148, 534, 545, 461, 25
149, 171, 545, 19, 20
150, 174, 19, 545, 199
151, 239, 448, 186, 180
152, 174, 200, 199, 545
153, 545, 200, 201, 542
154, 179, 186, 29, 448
155, 172, 542, 200, 545
156, 545, 172, 542, 171
157, 22, 198, 23, 444
158, 444, 23, 24, 198
159, 444, 198, 199, 197
160, 239, 448, 66, 426
161, 195, 198, 22, 444
162, 202, 201, 204, 545
163, 203, 545, 26, 202
164, 197, 196, 444, 198
165, 199, 545, 200, 202
166, 545, 25, 26, 202
167, 202, 204, 203, 545
168, 24, 202, 25, 461
169, 199, 202, 24, 461
170, 32, 548, 69, 241
171, 448, 66, 402, 239
172, 201, 200, 545, 202
173, 176, 179, 28, 448
174, 448, 28, 29, 179
175, 67, 66, 426, 239
176, 426, 30, 186, 29
177, 29, 186, 426, 448
178, 426, 448, 402, 29
179, 31, 240, 426, 186
180, 554, 422, 4, 3
181, 196, 28, 402, 448
182, 212, 403, 472, 489
183, 64, 460, 2, 256
184, 163, 230, 454, 457
185, 67, 239, 426, 238
186, 426, 239, 186, 238
187, 402, 448, 426, 66
188, 471, 250, 77, 76
189, 76, 471, 458, 77
190, 31, 426, 30, 186
191, 453, 42, 169, 41
192, 157, 540, 244, 246
193, 471, 489, 212, 472
194, 256, 1, 27, 17
195, 426, 68, 67, 240
196, 47, 532, 212, 472
197, 186, 184, 31, 240
198, 31, 68, 426, 240
199, 122, 330, 121, 544
200, 240, 238, 426, 186
201, 33, 32, 157, 548
202, 539, 69, 240, 241
203, 32, 184, 187, 241
204, 540, 246, 157, 155
205, 445, 569, 547, 329
206, 240, 31, 539, 184
207, 184, 539, 240, 241
208, 26, 58, 4, 422
209, 570, 104, 547, 330
210, 103, 329, 547, 104
211, 570, 330, 546, 104
212, 544, 122, 330, 339
213, 157, 246, 463, 155
214, 547, 303, 104, 570
215, 241, 157, 32, 548
216, 45, 464, 466, 533
217, 169, 421, 40, 168
218, 61, 60, 215, 459
219, 250, 470, 82, 471
220, 169, 173, 542, 168
221, 207, 206, 420, 54
222, 33, 540, 155, 34
223, 37, 189, 538, 36
224, 251, 252, 84, 470
225, 328, 569, 491, 445
226, 427, 443, 141, 126
227, 39, 167, 420, 38
228, 209, 190, 52, 208
229, 36, 189, 538, 190
230, 462, 208, 538, 37
231, 466, 155, 44, 156
232, 537, 190, 538, 52
233, 52, 208, 538, 53
234, 52, 190, 209, 537
235, 210, 191, 35, 190
236, 35, 190, 36, 537
237, 538, 190, 537, 36
238, 67, 426, 240, 238
239, 210, 537, 190, 35
240, 45, 46, 533, 535
241, 106, 423, 451, 257
242, 254, 80, 469, 425
243, 59, 213, 60, 458
244, 77, 471, 458, 470
245, 38, 167, 420, 165
246, 541, 167, 420, 39
247, 466, 44, 193, 156
248, 462, 165, 420, 207
249, 54, 206, 420, 55
250, 471, 250, 470, 77
251, 208, 189, 37, 165
252, 37, 165, 38, 462
253, 420, 165, 462, 38
254, 254, 79, 425, 216
255, 208, 462, 165, 37
256, 451, 331, 105, 257
257, 418, 120, 423, 331
258, 420, 206, 541, 55
259, 205, 168, 56, 204
260, 213, 214, 60, 458
261, 246, 155, 43, 466
262, 168, 169, 421, 204
263, 204, 169, 421, 453
264, 56, 168, 205, 206
265, 538, 208, 462, 53
266, 39, 168, 40, 541
267, 45, 325, 44, 524
268, 156, 193, 466, 224
269, 167, 541, 168, 39
270, 458, 214, 459, 470
271, 232, 450, 230, 181
272, 165, 206, 420, 207
273, 272, 325, 45, 524
274, 530, 272, 45, 524
275, 46, 532, 535, 47
276, 524, 45, 530, 533
277, 464, 524, 533, 45
278, 44, 464, 466, 45
279, 60, 214, 215, 459
280, 224, 193, 222, 535
281, 524, 525, 522, 325
282, 420, 167, 206, 165
283, 325, 324, 44, 525
284, 47, 271, 46, 531
285, 525, 44, 524, 464
286, 44, 525, 324, 43
287, 43, 525, 465, 44
288, 222, 466, 533, 45
289, 223, 224, 156, 466
290, 193, 466, 222, 45
291, 44, 45, 466, 193
292, 46, 530, 533, 532
293, 219, 466, 465, 464
294, 219, 464, 247, 466
295, 466, 247, 222, 533
296, 219, 465, 216, 464
297, 524, 45, 464, 44
298, 466, 464, 247, 533
299, 246, 43, 220, 466
300, 246, 466, 223, 156
301, 466, 155, 43, 44
302, 465, 466, 44, 464
303, 44, 325, 525, 524
304, 466, 218, 219, 465
305, 45, 533, 222, 535
306, 175, 178, 17, 536
307, 224, 535, 225, 193
308, 473, 270, 405, 47
309, 43, 465, 466, 44
310, 44, 525, 465, 464
311, 270, 271, 47, 531
312, 473, 270, 47, 531
313, 222, 533, 248, 535
314, 531, 47, 473, 472
315, 532, 531, 472, 47
316, 226, 454, 556, 161
317, 537, 190, 209, 210
318, 206, 541, 168, 167
319, 531, 530, 529, 271
320, 271, 272, 46, 530
321, 53, 462, 207, 208
322, 530, 46, 531, 532
323, 46, 530, 272, 45
324, 45, 530, 533, 46
325, 459, 252, 78, 77
326, 51, 537, 209, 210
327, 460, 256, 178, 17
328, 225, 210, 191, 535
329, 210, 535, 211, 47
330, 46, 47, 535, 191
331, 191, 47, 535, 210
332, 248, 535, 533, 532
333, 248, 532, 212, 535
334, 535, 212, 211, 47
335, 535, 192, 193, 46
336, 246, 155, 466, 156
337, 64, 256, 428, 178
338, 193, 45, 222, 535
339, 193, 535, 225, 192
340, 46, 271, 530, 531
341, 531, 47, 532, 46
342, 535, 193, 45, 46
343, 533, 247, 222, 248
344, 216, 218, 465, 219
345, 532, 471, 214, 213
346, 46, 532, 533, 535
347, 462, 165, 207, 208
348, 341, 456, 127, 486
349, 451, 423, 331, 257
350, 126, 455, 13, 452
351, 486, 456, 127, 418
352, 252, 216, 215, 424
353, 14, 423, 451, 106
354, 70, 540, 246, 244
355, 56, 40, 421, 168
356, 459, 252, 424, 78
357, 213, 532, 248, 214
358, 54, 462, 207, 53
359, 421, 40, 41, 169
360, 429, 101, 327, 328
361, 84, 252, 216, 215
362, 425, 216, 424, 62
363, 52, 537, 209, 51
364, 424, 252, 459, 215
365, 215, 464, 219, 216
366, 538, 189, 208, 190
367, 79, 216, 252, 424
368, 184, 32, 539, 241
369, 552, 210, 537, 51
370, 31, 32, 539, 184
371, 459, 214, 252, 470
372, 69, 539, 32, 241
373, 71, 70, 540, 246
374, 548, 244, 540, 70
375, 488, 491, 569, 337
376, 213, 489, 212, 471
377, 33, 540, 157, 155
378, 570, 543, 569, 337
379, 124, 328, 123, 488
380, 49, 212, 489, 403
381, 461, 199, 202, 545
382, 224, 466, 222, 193
383, 332, 491, 487, 335
384, 459, 424, 215, 61
385, 27, 428, 178, 176
386, 157, 463, 454, 158
387, 337, 488, 491, 335
388, 126, 443, 455, 452
389, 488, 124, 328, 335
390, 121, 544, 331, 341
391, 304, 327, 490, 429
392, 65, 64, 428, 196
393, 354, 353, 82, 531
394, 250, 251, 82, 470
395, 354, 82, 83, 531
396, 82, 353, 473, 531
397, 82, 531, 473, 472
398, 472, 82, 531, 532
399, 532, 82, 531, 83
400, 82, 532, 472, 471
401, 83, 532, 82, 470
402, 470, 82, 83, 251
403, 470, 251, 252, 77
404, 471, 470, 82, 532
405, 251, 84, 83, 470
406, 470, 250, 251, 77
407, 355, 354, 83, 530
408, 426, 448, 186, 239
409, 355, 83, 84, 530
410, 83, 354, 531, 530
411, 27, 428, 256, 178
412, 83, 530, 531, 532
413, 532, 83, 530, 533
414, 533, 83, 530, 84
415, 83, 533, 532, 470
416, 43, 419, 430, 5
417, 428, 196, 402, 65
418, 208, 189, 229, 555
419, 470, 84, 83, 533
420, 240, 31, 68, 539
421, 545, 171, 534, 20
422, 214, 533, 215, 84
423, 212, 532, 248, 213
424, 87, 304, 452, 443
425, 470, 471, 214, 532
426, 532, 471, 213, 212
427, 212, 532, 471, 472
428, 551, 471, 458, 76
429, 196, 448, 402, 239
430, 213, 214, 458, 471
431, 471, 214, 458, 470
432, 397, 398, 85, 525
433, 247, 215, 214, 533
434, 247, 214, 248, 533
435, 84, 470, 214, 533
436, 430, 322, 523, 525
437, 37, 189, 208, 538
438, 532, 533, 214, 470
439, 87, 452, 13, 455
440, 459, 214, 215, 252
441, 551, 458, 213, 59
442, 464, 84, 216, 215
443, 398, 355, 84, 524
444, 464, 84, 215, 533
445, 196, 402, 65, 239
446, 398, 84, 85, 524
447, 84, 355, 530, 524
448, 430, 322, 100, 99
449, 84, 524, 530, 533
450, 533, 84, 524, 464
451, 464, 84, 524, 85
452, 491, 102, 429, 328
453, 86, 254, 217, 216
454, 168, 40, 541, 56
455, 447, 43, 446, 220
456, 200, 172, 177, 180
457, 170, 26, 422, 203
458, 69, 68, 539, 240
459, 178, 536, 444, 22
460, 21, 26, 554, 170
461, 397, 85, 86, 525
462, 85, 398, 524, 525
463, 73, 446, 465, 220
464, 85, 525, 524, 464
465, 464, 85, 525, 465
466, 465, 85, 525, 86
467, 86, 74, 217, 254
468, 182, 181, 230, 163
469, 235, 168, 205, 201
470, 256, 27, 178, 17
471, 402, 66, 65, 239
472, 525, 523, 430, 395
473, 550, 168, 188, 166
474, 247, 464, 219, 215
475, 341, 121, 456, 331
476, 253, 252, 216, 84
477, 464, 533, 215, 247
478, 56, 206, 55, 541
479, 87, 452, 455, 443
480, 229, 189, 208, 553
481, 216, 252, 253, 79
482, 425, 62, 217, 216
483, 424, 252, 79, 78
484, 465, 86, 217, 216
485, 163, 182, 553, 230
486, 445, 328, 103, 102
487, 216, 465, 85, 464
488, 248, 533, 214, 532
489, 86, 253, 216, 85
490, 424, 216, 425, 79
491, 470, 252, 459, 77
492, 254, 79, 216, 253
493, 425, 63, 217, 62
494, 490, 304, 443, 327
495, 126, 452, 101, 327
496, 327, 452, 101, 304
497, 332, 327, 427, 125
498, 443, 442, 88, 492
499, 443, 304, 490, 492
500, 88, 297, 87, 443
501, 297, 443, 88, 492
502, 443, 297, 87, 304
503, 304, 443, 297, 492
504, 89, 296, 88, 441
505, 565, 296, 441, 492
506, 442, 441, 88, 492
507, 492, 441, 88, 296
508, 296, 88, 492, 297
509, 441, 440, 90, 564
510, 441, 296, 565, 564
511, 90, 305, 89, 441
512, 305, 441, 90, 564
513, 441, 305, 89, 296
514, 296, 441, 305, 564
515, 91, 306, 90, 439
516, 563, 306, 439, 564
517, 440, 439, 90, 564
518, 564, 439, 90, 306
519, 306, 90, 564, 305
520, 439, 438, 92, 505
521, 439, 306, 563, 505
522, 92, 307, 91, 439
523, 307, 439, 92, 505
524, 439, 307, 91, 306
525, 306, 439, 307, 505
526, 93, 310, 92, 437
527, 507, 310, 437, 505
528, 438, 437, 92, 505
529, 505, 437, 92, 310
530, 310, 92, 505, 307
531, 437, 436, 94, 508
532, 437, 310, 507, 508
533, 94, 312, 93, 437
534, 312, 437, 94, 508
535, 437, 312, 93, 310
536, 310, 437, 312, 508
537, 95, 314, 94, 435
538, 510, 314, 435, 508
539, 436, 435, 94, 508
540, 508, 435, 94, 314
541, 314, 94, 508, 312
542, 435, 434, 96, 528
543, 435, 314, 510, 528
544, 96, 316, 95, 435
545, 316, 435, 96, 528
546, 435, 316, 95, 314
547, 314, 435, 316, 528
548, 97, 318, 96, 433
549, 527, 318, 433, 528
550, 434, 433, 96, 528
551, 528, 433, 96, 318
552, 318, 96, 528, 316
553, 433, 432, 98, 526
554, 433, 318, 527, 526
555, 98, 320, 97, 433
556, 320, 433, 98, 526
557, 433, 320, 97, 318
558, 318, 433, 320, 526
559, 99, 322, 98, 431
560, 523, 322, 431, 526
561, 432, 431, 98, 526
562, 526, 431, 98, 322
563, 322, 98, 526, 320
564, 430, 324, 100, 322
565, 431, 322, 523, 430
566, 430, 525, 324, 322
567, 570, 331, 330, 544
568, 445, 491, 301, 569
569, 99, 430, 322, 431
570, 486, 331, 418, 257
571, 126, 443, 452, 327
572, 428, 27, 28, 176
573, 429, 299, 102, 491
574, 257, 423, 331, 418
575, 108, 417, 107, 485
576, 257, 258, 107, 485
577, 257, 486, 485, 417
578, 257, 417, 485, 107
579, 107, 257, 417, 106
580, 417, 257, 486, 418
581, 418, 417, 257, 106
582, 484, 485, 416, 259
583, 416, 417, 108, 485
584, 107, 485, 258, 108
585, 108, 485, 258, 259
586, 259, 108, 485, 416
587, 110, 415, 109, 483
588, 259, 260, 109, 483
589, 259, 484, 483, 415
590, 259, 415, 483, 109
591, 109, 259, 415, 108
592, 415, 259, 484, 416
593, 416, 415, 259, 108
594, 482, 483, 414, 261
595, 414, 415, 110, 483
596, 109, 483, 260, 110
597, 110, 483, 260, 261
598, 261, 110, 483, 414
599, 112, 413, 111, 481
600, 261, 262, 111, 481
601, 261, 482, 481, 413
602, 261, 413, 481, 111
603, 111, 261, 413, 110
604, 413, 261, 482, 414
605, 414, 413, 261, 110
606, 480, 481, 412, 263
607, 412, 413, 112, 481
608, 111, 481, 262, 112
609, 112, 481, 262, 263
610, 263, 112, 481, 412
611, 114, 411, 113, 479
612, 263, 264, 113, 479
613, 263, 480, 479, 411
614, 263, 411, 479, 113
615, 113, 263, 411, 112
616, 411, 263, 480, 412
617, 412, 411, 263, 112
618, 478, 479, 410, 265
619, 410, 411, 114, 479
620, 113, 479, 264, 114
621, 114, 479, 264, 265
622, 265, 114, 479, 410
623, 116, 409, 115, 477
624, 265, 266, 115, 477
625, 265, 478, 477, 409
626, 265, 409, 477, 115
627, 115, 265, 409, 114
628, 409, 265, 478, 410
629, 410, 409, 265, 114
630, 476, 477, 408, 267
631, 408, 409, 116, 477
632, 115, 477, 266, 116
633, 116, 477, 266, 267
634, 267, 116, 477, 408
635, 118, 407, 117, 475
636, 267, 268, 117, 475
637, 267, 476, 475, 407
638, 267, 407, 475, 117
639, 117, 267, 407, 116
640, 407, 267, 476, 408
641, 408, 407, 267, 116
642, 474, 475, 406, 269
643, 406, 407, 118, 475
644, 117, 475, 268, 118
645, 118, 475, 268, 269
646, 269, 118, 475, 406
647, 129, 340, 128, 485
648, 405, 270, 473, 474
649, 119, 405, 118, 269
650, 405, 269, 119, 270
651, 270, 405, 269, 474
652, 474, 405, 269, 406
653, 406, 405, 269, 118
654, 488, 328, 491, 335
655, 491, 569, 328, 488
656, 503, 370, 372, 376
657, 418, 127, 486, 128
658, 416, 129, 484, 130
659, 402, 196, 428, 28
660, 331, 120, 15, 456
661, 131, 343, 130, 483
662, 456, 341, 331, 486
663, 418, 331, 456, 120
664, 486, 127, 341, 128
665, 340, 341, 128, 485
666, 417, 486, 485, 128
667, 128, 486, 485, 341
668, 484, 485, 129, 416
669, 418, 128, 486, 417
670, 414, 131, 482, 132
671, 342, 340, 129, 485
672, 128, 485, 417, 129
673, 133, 345, 132, 481
674, 342, 485, 129, 484
675, 416, 485, 129, 417
676, 484, 129, 342, 130
677, 343, 342, 130, 483
678, 415, 484, 483, 130
679, 130, 484, 483, 342
680, 482, 483, 131, 414
681, 416, 130, 484, 415
682, 412, 133, 480, 134
683, 344, 343, 131, 483
684, 130, 483, 415, 131
685, 135, 347, 134, 479
686, 344, 483, 131, 482
687, 414, 483, 131, 415
688, 482, 131, 344, 132
689, 345, 344, 132, 481
690, 413, 482, 481, 132
691, 132, 482, 481, 344
692, 480, 481, 133, 412
693, 414, 132, 482, 413
694, 410, 135, 478, 136
695, 346, 345, 133, 481
696, 132, 481, 413, 133
697, 137, 349, 136, 477
698, 346, 481, 133, 480
699, 412, 481, 133, 413
700, 480, 133, 346, 134
701, 347, 346, 134, 479
702, 411, 480, 479, 134
703, 134, 480, 479, 346
704, 478, 479, 135, 410
705, 412, 134, 480, 411
706, 408, 137, 476, 138
707, 348, 347, 135, 479
708, 134, 479, 411, 135
709, 352, 405, 139, 140
710, 348, 479, 135, 478
711, 410, 479, 135, 411
712, 478, 135, 348, 136
713, 349, 348, 136, 477
714, 409, 478, 477, 136
715, 136, 478, 477, 348
716, 476, 477, 137, 408
717, 410, 136, 478, 409
718, 195, 22, 64, 178
719, 350, 349, 137, 477
720, 136, 477, 409, 137
721, 139, 351, 138, 475
722, 350, 477, 137, 476
723, 408, 477, 137, 409
724, 476, 137, 350, 138
725, 351, 350, 138, 475
726, 407, 476, 475, 138
727, 138, 476, 475, 350
728, 171, 170, 545, 534
729, 408, 138, 476, 407
730, 406, 475, 474, 352
731, 352, 351, 139, 475
732, 138, 475, 407, 139
733, 427, 126, 141, 16
734, 352, 475, 139, 406
735, 406, 475, 139, 407
736, 406, 139, 352, 405
737, 353, 352, 140, 473
738, 405, 474, 473, 352
739, 405, 352, 473, 140
740, 431, 395, 153, 430
741, 406, 405, 352, 474
742, 141, 332, 443, 427
743, 327, 443, 490, 332
744, 427, 126, 16, 125
745, 443, 332, 141, 142
746, 442, 443, 142, 492
747, 492, 490, 443, 332
748, 332, 443, 492, 142
749, 142, 492, 332, 333
750, 143, 382, 441, 142
751, 492, 441, 565, 382
752, 441, 442, 142, 492
753, 492, 142, 441, 382
754, 382, 492, 142, 333
755, 441, 382, 143, 144
756, 440, 441, 144, 564
757, 564, 565, 441, 382
758, 382, 441, 564, 144
759, 144, 564, 382, 381
760, 145, 379, 439, 144
761, 564, 439, 563, 379
762, 439, 440, 144, 564
763, 564, 144, 439, 379
764, 379, 564, 144, 381
765, 439, 379, 145, 146
766, 438, 439, 146, 505
767, 505, 563, 439, 379
768, 379, 439, 505, 146
769, 146, 505, 379, 378
770, 147, 383, 437, 146
771, 505, 437, 507, 383
772, 437, 438, 146, 505
773, 505, 146, 437, 383
774, 383, 505, 146, 378
775, 437, 383, 147, 148
776, 436, 437, 148, 508
777, 508, 507, 437, 383
778, 383, 437, 508, 148
779, 148, 508, 383, 385
780, 149, 387, 435, 148
781, 508, 435, 510, 387
782, 435, 436, 148, 508
783, 508, 148, 435, 387
784, 387, 508, 148, 385
785, 435, 387, 149, 150
786, 434, 435, 150, 528
787, 528, 510, 435, 387
788, 387, 435, 528, 150
789, 150, 528, 387, 389
790, 151, 391, 433, 150
791, 528, 433, 527, 391
792, 433, 434, 150, 528
793, 528, 150, 433, 391
794, 391, 528, 150, 389
795, 433, 391, 151, 152
796, 432, 433, 152, 526
797, 526, 527, 433, 391
798, 391, 433, 526, 152
799, 152, 526, 391, 393
800, 153, 395, 431, 152
801, 526, 431, 523, 395
802, 431, 432, 152, 526
803, 526, 152, 431, 395
804, 395, 526, 152, 393
805, 430, 395, 153, 154
806, 430, 523, 431, 395
807, 397, 395, 525, 430
808, 330, 331, 121, 544
809, 204, 421, 56, 57
810, 154, 430, 395, 397
811, 168, 173, 542, 188
812, 423, 120, 14, 331
813, 255, 24, 461, 199
814, 200, 542, 172, 188
815, 550, 235, 234, 188
816, 168, 421, 56, 204
817, 536, 175, 178, 444
818, 182, 234, 181, 183
819, 167, 168, 550, 166
820, 255, 444, 199, 174
821, 175, 174, 444, 255
822, 183, 550, 234, 188
823, 188, 172, 173, 542
824, 550, 166, 188, 183
825, 550, 166, 183, 182
826, 534, 170, 545, 26
827, 467, 469, 8, 63
828, 536, 444, 255, 175
829, 550, 205, 233, 235
830, 235, 188, 168, 201
831, 201, 168, 542, 188
832, 204, 169, 201, 168
833, 201, 205, 204, 168
834, 233, 550, 206, 205
835, 206, 167, 168, 550
836, 188, 550, 235, 168
837, 255, 444, 24, 199
838, 206, 205, 550, 168
839, 182, 553, 550, 164
840, 196, 176, 448, 180
841, 200, 188, 172, 183
842, 200, 235, 201, 188
843, 188, 200, 234, 183
844, 188, 200, 235, 234
845, 542, 188, 200, 201
846, 232, 182, 550, 234
847, 200, 172, 180, 183
848, 254, 253, 216, 86
849, 183, 182, 234, 550
850, 454, 163, 185, 160
851, 74, 63, 217, 254
852, 8, 74, 467, 63
853, 181, 234, 180, 183
854, 74, 465, 468, 12
855, 461, 20, 19, 545
856, 47, 210, 552, 50
857, 213, 551, 549, 404
858, 467, 81, 469, 254
859, 553, 165, 164, 189
860, 213, 549, 48, 404
861, 238, 239, 186, 180
862, 180, 179, 176, 448
863, 552, 191, 210, 47
864, 213, 551, 404, 471
865, 465, 468, 73, 74
866, 553, 164, 167, 550
867, 281, 283, 512, 558
868, 550, 553, 232, 233
869, 402, 448, 28, 29
870, 200, 180, 177, 197
871, 570, 547, 569, 330
872, 234, 200, 180, 183
873, 450, 181, 232, 449
874, 180, 181, 449, 234
875, 234, 181, 449, 232
876, 232, 234, 181, 182
877, 168, 550, 235, 205
878, 197, 180, 196, 239
879, 449, 237, 239, 180
880, 239, 196, 448, 180
881, 177, 196, 197, 180
882, 232, 182, 181, 230
883, 180, 177, 196, 176
884, 550, 167, 553, 206
885, 450, 449, 238, 181
886, 238, 180, 186, 181
887, 180, 239, 449, 238
888, 180, 238, 449, 181
889, 540, 244, 548, 157
890, 230, 181, 457, 163
891, 254, 425, 217, 216
892, 189, 553, 165, 208
893, 164, 167, 550, 166
894, 424, 215, 62, 216
895, 163, 161, 230, 553
896, 550, 166, 182, 164
897, 74, 81, 467, 254
898, 241, 457, 187, 454
899, 419, 465, 73, 446
900, 228, 161, 230, 454
901, 5, 447, 34, 155
902, 206, 550, 233, 553
903, 206, 553, 207, 165
904, 164, 165, 553, 167
905, 167, 165, 553, 206
906, 35, 191, 210, 552
907, 229, 162, 189, 553
908, 553, 208, 207, 165
909, 553, 189, 164, 162
910, 229, 553, 161, 162
911, 553, 163, 161, 164
912, 460, 1, 256, 17
913, 457, 238, 240, 186
914, 457, 181, 185, 163
915, 182, 553, 164, 163
916, 230, 182, 553, 232
917, 232, 182, 553, 550
918, 553, 228, 229, 161
919, 230, 161, 228, 553
920, 553, 161, 162, 164
921, 184, 457, 186, 185
922, 419, 43, 446, 5
923, 540, 246, 447, 71
924, 26, 422, 4, 554
925, 555, 190, 194, 191
926, 447, 220, 446, 72
927, 422, 554, 26, 170
928, 181, 186, 457, 185
929, 161, 163, 454, 160
930, 569, 329, 488, 337
931, 446, 43, 447, 5
932, 72, 73, 220, 446
933, 457, 184, 187, 185
934, 60, 214, 459, 458
935, 185, 160, 187, 454
936, 58, 453, 203, 204
937, 58, 453, 204, 57
938, 454, 230, 242, 457
939, 225, 191, 192, 535
940, 465, 74, 86, 12
941, 238, 450, 457, 243
942, 555, 194, 189, 162
943, 5, 43, 447, 155
944, 242, 454, 228, 230
945, 230, 161, 163, 454
946, 192, 191, 225, 555
947, 241, 187, 157, 454
948, 72, 71, 447, 246
949, 163, 457, 454, 185
950, 457, 238, 186, 181
951, 240, 186, 184, 457
952, 193, 556, 156, 159
953, 457, 450, 238, 181
954, 449, 237, 238, 239
955, 546, 570, 257, 331
956, 457, 241, 242, 454
957, 457, 185, 187, 454
958, 241, 184, 187, 457
959, 240, 241, 457, 184
960, 256, 460, 2, 1
961, 427, 327, 126, 125
962, 191, 555, 190, 210
963, 331, 14, 423, 451
964, 28, 448, 196, 176
965, 556, 193, 226, 555
966, 161, 556, 194, 159
967, 228, 454, 242, 226
968, 193, 194, 556, 159
969, 189, 162, 229, 555
970, 208, 555, 209, 190
971, 194, 190, 555, 189
972, 189, 190, 555, 208
973, 330, 331, 570, 546
974, 191, 210, 225, 555
975, 555, 210, 209, 190
976, 555, 191, 194, 192
977, 555, 224, 225, 193
978, 555, 162, 161, 194
979, 226, 156, 224, 193
980, 228, 555, 229, 161
981, 555, 556, 193, 194
982, 161, 226, 228, 555
983, 555, 161, 556, 194
984, 555, 193, 225, 192
985, 160, 158, 157, 454
986, 161, 556, 226, 555
987, 555, 193, 192, 194
988, 454, 161, 160, 158
989, 202, 25, 461, 545
990, 161, 454, 556, 158
991, 158, 556, 161, 159
992, 453, 169, 421, 41
993, 429, 328, 490, 491
994, 156, 556, 158, 159
995, 330, 104, 547, 329
996, 160, 157, 187, 454
997, 256, 64, 460, 178
998, 463, 158, 157, 155
999, 458, 470, 459, 77
1000, 304, 429, 490, 491
1001, 216, 85, 84, 464
1002, 252, 470, 214, 84
1003, 156, 226, 223, 463
1004, 226, 454, 242, 463
1005, 158, 556, 463, 454
1006, 454, 556, 463, 226
1007, 226, 228, 454, 161
1008, 156, 224, 223, 226
1009, 197, 200, 180, 234
1010, 463, 556, 158, 156
1011, 156, 226, 556, 193
1012, 242, 241, 463, 454
1013, 244, 241, 157, 463
1014, 155, 246, 463, 156
1015, 443, 327, 126, 427
1016, 226, 193, 224, 555
1017, 463, 246, 223, 156
1018, 156, 463, 556, 226
1019, 529, 357, 530, 531
1020, 239, 237, 197, 180
1021, 244, 246, 463, 157
1022, 155, 463, 158, 156
1023, 237, 236, 232, 449
1024, 257, 106, 423, 418
1025, 234, 233, 235, 550
1026, 570, 547, 301, 569
1027, 196, 64, 428, 178
1028, 445, 329, 547, 103
1029, 553, 231, 229, 228
1030, 512, 281, 511, 283
1031, 547, 569, 445, 301
1032, 237, 232, 234, 449
1033, 232, 236, 450, 449
1034, 74, 467, 63, 254
1035, 530, 531, 357, 354
1036, 233, 553, 232, 231
1037, 238, 449, 450, 236
1038, 449, 237, 236, 238
1039, 212, 48, 49, 489
1040, 207, 553, 206, 231
1041, 61, 215, 62, 424
1042, 229, 553, 208, 231
1043, 233, 206, 553, 231
1044, 456, 120, 15, 127
1045, 457, 243, 241, 240
1046, 207, 208, 553, 231
1047, 450, 236, 232, 230
1048, 230, 232, 553, 231
1049, 553, 231, 228, 230
1050, 555, 227, 225, 224
1051, 450, 236, 230, 243
1052, 230, 243, 457, 450
1053, 229, 555, 228, 227
1054, 229, 161, 555, 162
1055, 242, 457, 230, 243
1056, 240, 238, 457, 243
1057, 450, 236, 243, 238
1058, 180, 237, 234, 449
1059, 337, 570, 543, 339
1060, 487, 332, 490, 491
1061, 457, 243, 242, 241
1062, 123, 488, 329, 337
1063, 548, 70, 69, 244
1064, 209, 555, 208, 227
1065, 418, 456, 127, 120
1066, 225, 555, 210, 227
1067, 229, 208, 555, 227
1068, 463, 246, 244, 245
1069, 209, 210, 555, 227
1070, 562, 285, 506, 287
1071, 226, 228, 555, 227
1072, 555, 227, 224, 226
1073, 245, 242, 241, 463
1074, 242, 226, 463, 245
1075, 570, 330, 569, 543
1076, 223, 463, 226, 245
1077, 245, 241, 244, 463
1078, 101, 328, 429, 102
1079, 225, 535, 224, 249
1080, 570, 341, 544, 339
1081, 331, 544, 570, 341
1082, 491, 328, 445, 102
1083, 211, 535, 210, 249
1084, 223, 246, 463, 245
1085, 248, 535, 212, 249
1086, 225, 210, 535, 249
1087, 219, 466, 247, 221
1088, 211, 212, 535, 249
1089, 222, 466, 224, 221
1090, 222, 224, 535, 249
1091, 190, 208, 538, 52
1092, 34, 447, 540, 155
1093, 456, 121, 15, 331
1094, 222, 535, 248, 249
1095, 220, 466, 218, 221
1096, 223, 224, 466, 221
1097, 220, 43, 246, 447
1098, 428, 196, 178, 176
1099, 223, 466, 246, 221
1100, 222, 247, 466, 221
1101, 328, 487, 490, 491
1102, 220, 246, 466, 221
1103, 285, 287, 562, 561
1104, 219, 218, 466, 221
1105, 569, 329, 328, 488
1106, 328, 329, 445, 103
1107, 299, 301, 445, 491
1108, 199, 19, 545, 461
1109, 491, 445, 299, 102
1110, 32, 157, 241, 187
1111, 429, 327, 490, 328
1112, 328, 569, 445, 329
1113, 304, 299, 429, 491
1114, 74, 86, 81, 254
1115, 254, 80, 425, 79
1116, 493, 491, 494, 298
1117, 298, 300, 301, 494
1118, 299, 491, 298, 301
1119, 301, 491, 298, 494
1120, 494, 301, 491, 569
1121, 304, 492, 297, 298
1122, 493, 298, 492, 491
1123, 492, 304, 490, 491
1124, 491, 492, 304, 298
1125, 298, 304, 491, 299
1126, 293, 309, 289, 502
1127, 498, 291, 289, 293
1128, 567, 498, 501, 293
1129, 501, 293, 498, 289
1130, 289, 501, 293, 502
1131, 502, 501, 293, 567
1132, 306, 564, 563, 502
1133, 502, 567, 293, 564
1134, 309, 293, 305, 564
1135, 564, 309, 293, 502
1136, 502, 564, 309, 306
1137, 306, 564, 309, 305
1138, 504, 502, 503, 308
1139, 308, 287, 289, 503
1140, 309, 502, 308, 289
1141, 289, 502, 308, 503
1142, 503, 289, 502, 501
1143, 306, 505, 307, 308
1144, 504, 308, 505, 502
1145, 505, 306, 563, 502
1146, 502, 505, 306, 308
1147, 308, 306, 502, 309
1148, 562, 287, 506, 503
1149, 504, 503, 506, 308
1150, 311, 285, 287, 506
1151, 516, 277, 557, 279
1152, 506, 287, 311, 308
1153, 308, 506, 287, 503
1154, 310, 505, 507, 506
1155, 505, 308, 504, 506
1156, 506, 311, 310, 307
1157, 506, 307, 310, 505
1158, 505, 506, 307, 308
1159, 308, 506, 307, 311
1160, 509, 506, 560, 313
1161, 313, 283, 285, 560
1162, 311, 506, 313, 285
1163, 285, 506, 313, 560
1164, 560, 285, 506, 562
1165, 310, 508, 312, 313
1166, 509, 313, 508, 506
1167, 508, 310, 507, 506
1168, 506, 508, 310, 313
1169, 313, 310, 506, 311
1170, 512, 283, 511, 560
1171, 509, 560, 511, 313
1172, 315, 281, 283, 511
1173, 521, 273, 522, 275
1174, 511, 283, 315, 313
1175, 313, 511, 283, 560
1176, 314, 508, 510, 511
1177, 508, 313, 509, 511
1178, 511, 315, 314, 312
1179, 511, 312, 314, 508
1180, 508, 511, 312, 313
1181, 313, 511, 312, 315
1182, 513, 511, 514, 317
1183, 317, 279, 281, 514
1184, 315, 511, 317, 281
1185, 281, 511, 317, 514
1186, 514, 281, 511, 512
1187, 314, 528, 316, 317
1188, 513, 317, 528, 511
1189, 528, 314, 510, 511
1190, 511, 528, 314, 317
1191, 317, 314, 511, 315
1192, 516, 279, 557, 514
1193, 513, 514, 557, 317
1194, 319, 277, 279, 557
1195, 270, 274, 271, 529
1196, 557, 279, 319, 317
1197, 317, 557, 279, 514
1198, 318, 528, 527, 557
1199, 528, 317, 513, 557
1200, 557, 319, 318, 316
1201, 557, 316, 318, 528
1202, 528, 557, 316, 317
1203, 317, 557, 316, 319
1204, 520, 557, 519, 321
1205, 321, 275, 277, 519
1206, 319, 557, 321, 277
1207, 277, 557, 321, 519
1208, 519, 277, 557, 516
1209, 318, 526, 320, 321
1210, 520, 321, 526, 557
1211, 526, 318, 527, 557
1212, 557, 526, 318, 321
1213, 321, 318, 557, 319
1214, 521, 275, 522, 519
1215, 520, 519, 522, 321
1216, 323, 273, 275, 522
1217, 272, 273, 521, 529
1218, 522, 275, 323, 321
1219, 321, 522, 275, 519
1220, 322, 526, 523, 522
1221, 526, 321, 520, 522
1222, 522, 323, 322, 320
1223, 522, 320, 322, 526
1224, 526, 522, 320, 321
1225, 321, 522, 320, 323
1226, 273, 323, 272, 522
1227, 522, 272, 521, 530
1228, 524, 272, 325, 522
1229, 372, 377, 374, 567
1230, 272, 522, 524, 530
1231, 543, 570, 330, 339
1232, 525, 322, 523, 522
1233, 535, 46, 191, 192
1234, 522, 324, 525, 322
1235, 525, 324, 522, 325
1236, 325, 324, 522, 323
1237, 323, 324, 522, 322
1238, 486, 257, 570, 331
1239, 330, 331, 546, 105
1240, 303, 257, 546, 570
1241, 546, 257, 105, 331
1242, 570, 546, 303, 104
1243, 212, 213, 48, 489
1244, 204, 453, 421, 57
1245, 301, 303, 547, 570
1246, 330, 547, 569, 329
1247, 540, 157, 548, 33
1248, 568, 570, 485, 302
1249, 485, 486, 257, 570
1250, 257, 570, 303, 258
1251, 258, 570, 303, 302
1252, 302, 258, 570, 485
1253, 485, 258, 570, 257
1254, 301, 494, 300, 302
1255, 568, 302, 494, 570
1256, 494, 301, 569, 570
1257, 570, 494, 301, 302
1258, 302, 301, 570, 303
1259, 292, 290, 261, 500
1260, 499, 483, 500, 292
1261, 482, 261, 500, 483
1262, 483, 261, 500, 292
1263, 292, 483, 261, 260
1264, 289, 498, 501, 500
1265, 500, 499, 292, 498
1266, 290, 292, 291, 498
1267, 498, 290, 292, 500
1268, 500, 498, 290, 289
1269, 289, 498, 290, 291
1270, 566, 500, 481, 288
1271, 481, 482, 261, 500
1272, 261, 500, 290, 262
1273, 262, 500, 290, 288
1274, 288, 262, 500, 481
1275, 481, 262, 500, 261
1276, 289, 503, 287, 288
1277, 566, 288, 503, 500
1278, 503, 289, 501, 500
1279, 500, 503, 289, 288
1280, 288, 289, 500, 290
1281, 288, 286, 263, 561
1282, 480, 263, 561, 481
1283, 263, 481, 262, 288
1284, 288, 263, 481, 561
1285, 561, 481, 288, 566
1286, 287, 503, 562, 561
1287, 503, 288, 566, 561
1288, 561, 286, 285, 287
1289, 277, 279, 516, 517
1290, 503, 561, 287, 288
1291, 288, 561, 287, 286
1292, 559, 561, 479, 284
1293, 479, 480, 263, 561
1294, 263, 561, 286, 264
1295, 264, 561, 286, 284
1296, 284, 264, 561, 479
1297, 479, 264, 561, 263
1298, 285, 560, 283, 284
1299, 559, 284, 560, 561
1300, 560, 285, 562, 561
1301, 561, 560, 285, 284
1302, 284, 285, 561, 286
1303, 284, 282, 265, 558
1304, 478, 265, 558, 479
1305, 265, 479, 264, 284
1306, 284, 265, 479, 558
1307, 558, 479, 284, 559
1308, 283, 560, 512, 558
1309, 560, 284, 559, 558
1310, 558, 282, 281, 283
1311, 273, 275, 521, 529
1312, 560, 558, 283, 284
1313, 284, 558, 283, 282
1314, 515, 558, 477, 280
1315, 477, 478, 265, 558
1316, 265, 558, 282, 266
1317, 266, 558, 282, 280
1318, 280, 266, 558, 477
1319, 477, 266, 558, 265
1320, 281, 514, 279, 280
1321, 515, 280, 514, 558
1322, 514, 281, 512, 558
1323, 558, 514, 281, 280
1324, 280, 281, 558, 282
1325, 280, 278, 267, 517
1326, 476, 267, 517, 477
1327, 267, 477, 266, 280
1328, 280, 267, 477, 517
1329, 517, 477, 280, 515
1330, 279, 514, 516, 517
1331, 514, 280, 515, 517
1332, 517, 278, 277, 279
1333, 272, 323, 325, 522
1334, 514, 517, 279, 280
1335, 280, 517, 279, 278
1336, 518, 517, 475, 276
1337, 475, 476, 267, 517
1338, 267, 517, 278, 268
1339, 268, 517, 278, 276
1340, 276, 268, 517, 475
1341, 475, 268, 517, 267
1342, 277, 519, 275, 276
1343, 518, 276, 519, 517
1344, 519, 277, 516, 517
1345, 517, 519, 277, 276
1346, 276, 277, 517, 278
1347, 276, 274, 269, 529
1348, 474, 269, 529, 475
1349, 269, 475, 268, 276
1350, 276, 269, 475, 529
1351, 529, 475, 276, 518
1352, 275, 519, 521, 529
1353, 519, 276, 518, 529
1354, 529, 274, 273, 275
1355, 522, 273, 521, 272
1356, 519, 529, 275, 276
1357, 276, 529, 275, 274
1358, 531, 473, 270, 474
1359, 269, 274, 270, 529
1360, 531, 270, 271, 529
1361, 531, 354, 353, 352
1362, 270, 529, 531, 474
1363, 474, 270, 529, 269
1364, 530, 272, 521, 529
1365, 570, 544, 330, 339
1366, 530, 272, 529, 271
1367, 271, 272, 529, 274
1368, 274, 272, 529, 273
1369, 543, 329, 569, 337
1370, 341, 331, 486, 570
1371, 122, 123, 330, 543
1372, 487, 491, 328, 335
1373, 329, 543, 123, 337
1374, 329, 330, 123, 543
1375, 330, 329, 569, 543
1376, 328, 329, 123, 488
1377, 196, 195, 64, 178
1378, 543, 330, 122, 339
1379, 485, 340, 341, 338
1380, 485, 570, 568, 338
1381, 485, 486, 570, 341
1382, 341, 570, 485, 338
1383, 338, 341, 570, 339
1384, 570, 339, 337, 338
1385, 570, 494, 568, 338
1386, 494, 570, 569, 337
1387, 337, 494, 570, 338
1388, 338, 337, 494, 336
1389, 483, 344, 343, 375
1390, 344, 483, 482, 500
1391, 500, 483, 499, 375
1392, 375, 500, 483, 344
1393, 344, 375, 500, 373
1394, 500, 373, 375, 372
1395, 500, 498, 501, 372
1396, 500, 499, 498, 375
1397, 375, 498, 500, 372
1398, 372, 375, 498, 374
1399, 481, 345, 344, 371
1400, 481, 500, 566, 371
1401, 481, 482, 500, 344
1402, 344, 500, 481, 371
1403, 371, 344, 500, 373
1404, 500, 373, 372, 371
1405, 500, 503, 566, 371
1406, 503, 500, 501, 372
1407, 372, 503, 500, 371
1408, 371, 372, 503, 370
1409, 481, 346, 345, 371
1410, 346, 481, 480, 561
1411, 561, 481, 566, 371
1412, 371, 561, 481, 346
1413, 346, 371, 561, 369
1414, 503, 371, 370, 368
1415, 561, 503, 562, 368
1416, 561, 566, 503, 371
1417, 371, 503, 561, 368
1418, 368, 561, 371, 369
1419, 479, 347, 346, 367
1420, 479, 561, 559, 367
1421, 479, 480, 561, 346
1422, 346, 561, 479, 367
1423, 367, 346, 561, 369
1424, 561, 369, 368, 367
1425, 561, 560, 559, 367
1426, 560, 561, 562, 368
1427, 368, 560, 561, 367
1428, 367, 368, 560, 366
1429, 479, 348, 347, 367
1430, 348, 479, 478, 558
1431, 558, 479, 559, 367
1432, 367, 558, 479, 348
1433, 348, 367, 558, 365
1434, 560, 367, 366, 364
1435, 558, 560, 512, 364
1436, 558, 559, 560, 367
1437, 367, 560, 558, 364
1438, 364, 558, 367, 365
1439, 477, 349, 348, 363
1440, 477, 558, 515, 363
1441, 477, 478, 558, 348
1442, 348, 558, 477, 363
1443, 363, 348, 558, 365
1444, 558, 365, 364, 363
1445, 558, 514, 515, 363
1446, 514, 558, 512, 364
1447, 364, 514, 558, 363
1448, 363, 364, 514, 362
1449, 477, 350, 349, 363
1450, 350, 477, 476, 517
1451, 517, 477, 515, 363
1452, 363, 517, 477, 350
1453, 350, 363, 517, 361
1454, 514, 363, 362, 360
1455, 517, 514, 516, 360
1456, 517, 515, 514, 363
1457, 363, 514, 517, 360
1458, 360, 517, 363, 361
1459, 475, 351, 350, 359
1460, 475, 517, 518, 359
1461, 475, 476, 517, 350
1462, 350, 517, 475, 359
1463, 359, 350, 517, 361
1464, 517, 361, 360, 359
1465, 517, 519, 518, 359
1466, 519, 517, 516, 360
1467, 360, 519, 517, 359
1468, 359, 360, 519, 358
1469, 475, 352, 351, 359
1470, 352, 475, 474, 529
1471, 529, 475, 518, 359
1472, 359, 529, 475, 352
1473, 352, 359, 529, 357
1474, 519, 359, 358, 356
1475, 529, 519, 521, 356
1476, 529, 518, 519, 359
1477, 359, 519, 529, 356
1478, 356, 529, 359, 357
1479, 531, 354, 352, 357
1480, 529, 352, 357, 531
1481, 563, 564, 376, 502
1482, 353, 531, 352, 473
1483, 352, 531, 529, 474
1484, 474, 352, 531, 473
1485, 530, 355, 354, 356
1486, 530, 529, 521, 356
1487, 529, 357, 356, 530
1488, 356, 530, 357, 354
1489, 254, 469, 63, 425
1490, 327, 332, 490, 487
1491, 255, 461, 19, 199
1492, 124, 125, 328, 487
1493, 564, 381, 379, 376
1494, 487, 125, 327, 332
1495, 327, 328, 125, 487
1496, 327, 487, 490, 328
1497, 486, 331, 456, 418
1498, 81, 74, 12, 86
1499, 487, 328, 124, 335
1500, 494, 336, 337, 334
1501, 494, 491, 493, 334
1502, 494, 569, 491, 337
1503, 337, 491, 494, 334
1504, 334, 337, 491, 335
1505, 492, 332, 333, 334
1506, 491, 492, 493, 334
1507, 492, 491, 490, 332
1508, 332, 492, 491, 334
1509, 334, 491, 332, 335
1510, 501, 567, 502, 376
1511, 376, 377, 372, 567
1512, 498, 372, 374, 567
1513, 505, 502, 563, 376
1514, 376, 567, 372, 501
1515, 501, 567, 372, 498
1516, 564, 381, 376, 377
1517, 564, 379, 563, 376
1518, 567, 376, 377, 564
1519, 505, 376, 378, 380
1520, 404, 75, 250, 76
1521, 502, 564, 376, 567
1522, 503, 370, 376, 380
1523, 376, 380, 504, 503
1524, 489, 213, 48, 404
1525, 372, 503, 376, 501
1526, 376, 503, 504, 502
1527, 502, 376, 503, 501
1528, 505, 379, 378, 376
1529, 505, 376, 563, 379
1530, 504, 380, 376, 505
1531, 396, 356, 355, 522
1532, 75, 250, 9, 404
1533, 502, 376, 505, 504
1534, 503, 368, 370, 380
1535, 503, 506, 562, 368
1536, 506, 503, 504, 380
1537, 380, 506, 503, 368
1538, 368, 380, 506, 384
1539, 505, 378, 383, 380
1540, 505, 383, 507, 506
1541, 506, 504, 505, 380
1542, 380, 505, 506, 383
1543, 383, 506, 380, 384
1544, 560, 366, 368, 386
1545, 560, 506, 509, 386
1546, 560, 562, 506, 368
1547, 368, 506, 560, 386
1548, 386, 368, 506, 384
1549, 508, 383, 385, 386
1550, 506, 508, 509, 386
1551, 508, 506, 507, 383
1552, 383, 508, 506, 386
1553, 386, 506, 383, 384
1554, 560, 364, 366, 386
1555, 560, 511, 512, 364
1556, 511, 560, 509, 386
1557, 386, 511, 560, 364
1558, 364, 386, 511, 388
1559, 508, 385, 387, 386
1560, 508, 387, 510, 511
1561, 511, 509, 508, 386
1562, 386, 508, 511, 387
1563, 387, 511, 386, 388
1564, 514, 362, 364, 390
1565, 514, 511, 513, 390
1566, 514, 512, 511, 364
1567, 364, 511, 514, 390
1568, 390, 364, 511, 388
1569, 528, 387, 389, 390
1570, 511, 528, 513, 390
1571, 528, 511, 510, 387
1572, 387, 528, 511, 390
1573, 390, 511, 387, 388
1574, 514, 360, 362, 390
1575, 514, 557, 516, 360
1576, 557, 514, 513, 390
1577, 390, 557, 514, 360
1578, 360, 390, 557, 392
1579, 528, 389, 391, 390
1580, 528, 391, 527, 557
1581, 557, 513, 528, 390
1582, 390, 528, 557, 391
1583, 391, 557, 390, 392
1584, 519, 358, 360, 394
1585, 519, 557, 520, 394
1586, 519, 516, 557, 360
1587, 360, 557, 519, 394
1588, 394, 360, 557, 392
1589, 526, 391, 393, 394
1590, 557, 526, 520, 394
1591, 526, 557, 527, 391
1592, 391, 526, 557, 394
1593, 394, 557, 391, 392
1594, 519, 356, 358, 394
1595, 519, 522, 521, 356
1596, 522, 519, 520, 394
1597, 394, 522, 519, 356
1598, 356, 394, 522, 396
1599, 526, 393, 395, 394
1600, 526, 395, 523, 522
1601, 522, 520, 526, 394
1602, 394, 526, 522, 395
1603, 395, 522, 394, 396
1604, 530, 521, 522, 356
1605, 396, 355, 398, 522
1606, 524, 398, 355, 522
1607, 401, 399, 374, 495
1608, 356, 355, 522, 530
1609, 530, 355, 522, 524
1610, 525, 397, 398, 395
1611, 525, 398, 524, 522
1612, 525, 522, 523, 395
1613, 395, 525, 522, 398
1614, 398, 522, 395, 396
1615, 496, 295, 495, 494
1616, 493, 494, 495, 298
1617, 294, 295, 300, 495
1618, 300, 495, 295, 494
1619, 495, 300, 294, 298
1620, 298, 495, 300, 494
1621, 296, 492, 565, 495
1622, 492, 298, 493, 495
1623, 495, 294, 296, 297
1624, 495, 297, 296, 492
1625, 492, 495, 297, 298
1626, 298, 495, 297, 294
1627, 498, 293, 567, 495
1628, 293, 498, 291, 295
1629, 295, 294, 293, 495
1630, 495, 293, 295, 498
1631, 498, 295, 495, 496
1632, 564, 567, 293, 495
1633, 296, 564, 305, 293
1634, 564, 296, 565, 495
1635, 495, 564, 296, 293
1636, 293, 296, 495, 294
1637, 302, 326, 259, 497
1638, 484, 259, 497, 485
1639, 259, 485, 258, 302
1640, 302, 259, 485, 497
1641, 497, 485, 302, 568
1642, 295, 494, 496, 497
1643, 295, 300, 494, 302
1644, 295, 326, 302, 497
1645, 497, 302, 295, 494
1646, 494, 497, 302, 568
1647, 483, 292, 499, 497
1648, 483, 484, 259, 497
1649, 259, 497, 326, 260
1650, 260, 497, 326, 292
1651, 292, 260, 497, 483
1652, 483, 260, 497, 259
1653, 498, 499, 292, 497
1654, 498, 295, 496, 497
1655, 292, 497, 326, 291
1656, 291, 497, 326, 295
1657, 497, 291, 292, 498
1658, 498, 497, 291, 295
1659, 485, 342, 340, 338
1660, 342, 485, 484, 497
1661, 497, 485, 568, 338
1662, 338, 497, 485, 342
1663, 342, 338, 497, 400
1664, 494, 338, 336, 399
1665, 497, 494, 496, 399
1666, 497, 568, 494, 338
1667, 338, 494, 497, 399
1668, 399, 497, 338, 400
1669, 483, 343, 342, 375
1670, 375, 483, 499, 497
1671, 483, 484, 497, 342
1672, 342, 497, 483, 375
1673, 375, 342, 497, 400
1674, 498, 374, 375, 399
1675, 498, 497, 496, 399
1676, 498, 375, 499, 497
1677, 497, 498, 375, 399
1678, 399, 375, 497, 400
1679, 494, 336, 334, 399
1680, 494, 495, 496, 399
1681, 495, 494, 493, 334
1682, 334, 495, 494, 399
1683, 399, 334, 495, 401
1684, 492, 333, 382, 334
1685, 492, 382, 565, 495
1686, 495, 493, 492, 334
1687, 334, 492, 495, 382
1688, 382, 495, 334, 401
1689, 498, 496, 495, 399
1690, 401, 374, 377, 495
1691, 567, 377, 374, 495
1692, 119, 270, 47, 405
1693, 399, 374, 495, 498
1694, 498, 374, 495, 567
1695, 564, 382, 381, 377
1696, 564, 377, 567, 495
1697, 564, 495, 565, 382
1698, 382, 564, 495, 377
1699, 377, 495, 382, 401
*ELSET, ELSET="Solid Section1-1"
1, 2, 3, 4, 5, 6, 7, 8, 9, 10, 11, 12, 13, 14, 15, 16
17, 18, 19, 20, 21, 22, 23, 24, 25, 26, 27, 28, 29, 30, 31, 32
33, 34, 35, 36, 37, 38, 39, 40, 41, 42, 43, 44, 45, 46, 47, 48
49, 50, 51, 52, 53, 54, 55, 56, 57, 58, 59, 60, 61, 62, 63, 64
65, 66, 67, 68, 69, 70, 71, 72, 73, 74, 75, 76, 77, 78, 79, 80
81, 82, 83, 84, 85, 86, 87, 88, 89, 90, 91, 92, 93, 94, 95, 96
97, 98, 99, 100, 101, 102, 103, 104, 105, 106, 107, 108, 109, 110, 111, 112
113, 114, 115, 116, 117, 118, 119, 120, 121, 122, 123, 124, 125, 126, 127, 128
129, 130, 131, 132, 133, 134, 135, 136, 137, 138, 139, 140, 141, 142, 143, 144
145, 146, 147, 148, 149, 150, 151, 152, 153, 154, 155, 156, 157, 158, 159, 160
161, 162, 163, 164, 165, 166, 167, 168, 169, 170, 171, 172, 173, 174, 175, 176
177, 178, 179, 180, 181, 182, 183, 184, 185, 186, 187, 188, 189, 190, 191, 192
193, 194, 195, 196, 197, 198, 199, 200, 201, 202, 203, 204, 205, 206, 207, 208
209, 210, 211, 212, 213, 214, 215, 216, 217, 218, 219, 220, 221, 222, 223, 224
225, 226, 227, 228, 229, 230, 231, 232, 233, 234, 235, 236, 237, 238, 239, 240
241, 242, 243, 244, 245, 246, 247, 248, 249, 250, 251, 252, 253, 254, 255, 256
257, 258, 259, 260, 261, 262, 263, 264, 265, 266, 267, 268, 269, 270, 271, 272
273, 274, 275, 276, 277, 278, 279, 280, 281, 282, 283, 284, 285, 286, 287, 288
289, 290, 291, 292, 293, 294, 295, 296, 297, 298, 299, 300, 301, 302, 303, 304
305, 306, 307, 308, 309, 310, 311, 312, 313, 314, 315, 316, 317, 318, 319, 320
321, 322, 323, 324, 325, 326, 327, 328, 329, 330, 331, 332, 333, 334, 335, 336
337, 338, 339, 340, 341, 342, 343, 344, 345, 346, 347, 348, 349, 350, 351, 352
353, 354, 355, 356, 357, 358, 359, 360, 361, 362, 363, 364, 365, 366, 367, 368
369, 370, 371, 372, 373, 374, 375, 376, 377, 378, 379, 380, 381, 382, 383, 384
385, 386, 387, 388, 389, 390, 391, 392, 393, 394, 395, 396, 397, 398, 399, 400
401, 402, 403, 404, 405, 406, 407, 408, 409, 410, 411, 412, 413, 414, 415, 416
417, 418, 419, 420, 421, 422, 423, 424, 425, 426, 427, 428, 429, 430, 431, 432
433, 434, 435, 436, 437, 438, 439, 440, 441, 442, 443, 444, 445, 446, 447, 448
449, 450, 451, 452, 453, 454, 455, 456, 457, 458, 459, 460, 461, 462, 463, 464
465, 466, 467, 468, 469, 470, 471, 472, 473, 474, 475, 476, 477, 478, 479, 480
481, 482, 483, 484, 485, 486, 487, 488, 489, 490, 491, 492, 493, 494, 495, 496
497, 498, 499, 500, 501, 502, 503, 504, 505, 506, 507, 508, 509, 510, 511, 512
513, 514, 515, 516, 517, 518, 519, 520, 521, 522, 523, 524, 525, 526, 527, 528
529, 530, 531, 532, 533, 534, 535, 536, 537, 538, 539, 540, 541, 542, 543, 544
545, 546, 547, 548, 549, 550, 551, 552, 553, 554, 555, 556, 557, 558, 559, 560
561, 562, 563, 564, 565, 566, 567, 568, 569, 570, 571, 572, 573, 574, 575, 576
577, 578, 579, 580, 581, 582, 583, 584, 585, 586, 587, 588, 589, 590, 591, 592
593, 594, 595, 596, 597, 598, 599, 600, 601, 602, 603, 604, 605, 606, 607, 608
609, 610, 611, 612, 613, 614, 615, 616, 617, 618, 619, 620, 621, 622, 623, 624
625, 626, 627, 628, 629, 630, 631, 632, 633, 634, 635, 636, 637, 638, 639, 640
641, 642, 643, 644, 645, 646, 647, 648, 649, 650, 651, 652, 653, 654, 655, 656
657, 658, 659, 660, 661, 662, 663, 664, 665, 666, 667, 668, 669, 670, 671, 672
673, 674, 675, 676, 677, 678, 679, 680, 681, 682, 683, 684, 685, 686, 687, 688
689, 690, 691, 692, 693, 694, 695, 696, 697, 698, 699, 700, 701, 702, 703, 704
705, 706, 707, 708, 709, 710, 711, 712, 713, 714, 715, 716, 717, 718, 719, 720
721, 722, 723, 724, 725, 726, 727, 728, 729, 730, 731, 732, 733, 734, 735, 736
737, 738, 739, 740, 741, 742, 743, 744, 745, 746, 747, 748, 749, 750, 751, 752
753, 754, 755, 756, 757, 758, 759, 760, 761, 762, 763, 764, 765, 766, 767, 768
769, 770, 771, 772, 773, 774, 775, 776, 777, 778, 779, 780, 781, 782, 783, 784
785, 786, 787, 788, 789, 790, 791, 792, 793, 794, 795, 796, 797, 798, 799, 800
801, 802, 803, 804, 805, 806, 807, 808, 809, 810, 811, 812, 813, 814, 815, 816
817, 818, 819, 820, 821, 822, 823, 824, 825, 826, 827, 828, 829, 830, 831, 832
833, 834, 835, 836, 837, 838, 839, 840, 841, 842, 843, 844, 845, 846, 847, 848
849, 850, 851, 852, 853, 854, 855, 856, 857, 858, 859, 860, 861, 862, 863, 864
865, 866, 867, 868, 869, 870, 871, 872, 873, 874, 875, 876, 877, 878, 879, 880
881, 882, 883, 884, 885, 886, 887, 888, 889, 890, 891, 892, 893, 894, 895, 896
897, 898, 899, 900, 901, 902, 903, 904, 905, 906, 907, 908, 909, 910, 911, 912
913, 914, 915, 916, 917, 918, 919, 920, 921, 922, 923, 924, 925, 926, 927, 928
929, 930, 931, 932, 933, 934, 935, 936, 937, 938, 939, 940, 941, 942, 943, 944
945, 946, 947, 948, 949, 950, 951, 952, 953, 954, 955, 956, 957, 958, 959, 960
961, 962, 963, 964, 965, 966, 967, 968, 969, 970, 971, 972, 973, 974, 975, 976
977, 978, 979, 980, 981, 982, 983, 984, 985, 986, 987, 988, 989, 990, 991, 992
993, 994, 995, 996, 997, 998, 999, 1000, 1001, 1002, 1003, 1004, 1005, 1006, 1007, 1008
1009, 1010, 1011, 1012, 1013, 1014, 1015, 1016, 1017, 1018, 1019, 1020, 1021, 1022, 1023, 1024
1025, 1026, 1027, 1028, 1029, 1030, 1031, 1032, 1033, 1034, 1035, 1036, 1037, 1038, 1039, 1040
1041, 1042, 1043, 1044, 1045, 1046, 1047, 1048, 1049, 1050, 1051, 1052, 1053, 1054, 1055, 1056
1057, 1058, 1059, 1060, 1061, 1062, 1063, 1064, 1065, 1066, 1067, 1068, 1069, 1070, 1071, 1072
1073, 1074, 1075, 1076, 1077, 1078, 1079, 1080, 1081, 1082, 1083, 1084, 1085, 1086, 1087, 1088
1089, 1090, 1091, 1092, 1093, 1094, 1095, 1096, 1097, 1098, 1099, 1100, 1101, 1102, 1103, 1104
1105, 1106, 1107, 1108, 1109, 1110, 1111, 1112, 1113, 1114, 1115, 1116, 1117, 1118, 1119, 1120
1121, 1122, 1123, 1124, 1125, 1126, 1127, 1128, 1129, 1130, 1131, 1132, 1133, 1134, 1135, 1136
1137, 1138, 1139, 1140, 1141, 1142, 1143, 1144, 1145, 1146, 1147, 1148, 1149, 1150, 1151, 1152
1153, 1154, 1155, 1156, 1157, 1158, 1159, 1160, 1161, 1162, 1163, 1164, 1165, 1166, 1167, 1168
1169, 1170, 1171, 1172, 1173, 1174, 1175, 1176, 1177, 1178, 1179, 1180, 1181, 1182, 1183, 1184
1185, 1186, 1187, 1188, 1189, 1190, 1191, 1192, 1193, 1194, 1195, 1196, 1197, 1198, 1199, 1200
1201, 1202, 1203, 1204, 1205, 1206, 1207, 1208, 1209, 1210, 1211, 1212, 1213, 1214, 1215, 1216
1217, 1218, 1219, 1220, 1221, 1222, 1223, 1224, 1225, 1226, 1227, 1228, 1229, 1230, 1231, 1232
1233, 1234, 1235, 1236, 1237, 1238, 1239, 1240, 1241, 1242, 1243, 1244, 1245, 1246, 1247, 1248
1249, 1250, 1251, 1252, 1253, 1254, 1255, 1256, 1257, 1258, 1259, 1260, 1261, 1262, 1263, 1264
1265, 1266, 1267, 1268, 1269, 1270, 1271, 1272, 1273, 1274, 1275, 1276, 1277, 1278, 1279, 1280
1281, 1282, 1283, 1284, 1285, 1286, 1287, 1288, 1289, 1290, 1291, 1292, 1293, 1294, 1295, 1296
1297, 1298, 1299, 1300, 1301, 1302, 1303, 1304, 1305, 1306, 1307, 1308, 1309, 1310, 1311, 1312
1313, 1314, 1315, 1316, 1317, 1318, 1319, 1320, 1321, 1322, 1323, 1324, 1325, 1326, 1327, 1328
1329, 1330, 1331, 1332, 1333, 1334, 1335, 1336, 1337, 1338, 1339, 1340, 1341, 1342, 1343, 1344
1345, 1346, 1347, 1348, 1349, 1350, 1351, 1352, 1353, 1354, 1355, 1356, 1357, 1358, 1359, 1360
1361, 1362, 1363, 1364, 1365, 1366, 1367, 1368, 1369, 1370, 1371, 1372, 1373, 1374, 1375, 1376
1377, 1378, 1379, 1380, 1381, 1382, 1383, 1384, 1385, 1386, 1387, 1388, 1389, 1390, 1391, 1392
1393, 1394, 1395, 1396, 1397, 1398, 1399, 1400, 1401, 1402, 1403, 1404, 1405, 1406, 1407, 1408
1409, 1410, 1411, 1412, 1413, 1414, 1415, 1416, 1417, 1418, 1419, 1420, 1421, 1422, 1423, 1424
1425, 1426, 1427, 1428, 1429, 1430, 1431, 1432, 1433, 1434, 1435, 1436, 1437, 1438, 1439, 1440
1441, 1442, 1443, 1444, 1445, 1446, 1447, 1448, 1449, 1450, 1451, 1452, 1453, 1454, 1455, 1456
1457, 1458, 1459, 1460, 1461, 1462, 1463, 1464, 1465, 1466, 1467, 1468, 1469, 1470, 1471, 1472
1473, 1474, 1475, 1476, 1477, 1478, 1479, 1480, 1481, 1482, 1483, 1484, 1485, 1486, 1487, 1488
1489, 1490, 1491, 1492, 1493, 1494, 1495, 1496, 1497, 1498, 1499, 1500, 1501, 1502, 1503, 1504
1505, 1506, 1507, 1508, 1509, 1510, 1511, 1512, 1513, 1514, 1515, 1516, 1517, 1518, 1519, 1520
1521, 1522, 1523, 1524, 1525, 1526, 1527, 1528, 1529, 1530, 1531, 1532, 1533, 1534, 1535, 1536
1537, 1538, 1539, 1540, 1541, 1542, 1543, 1544, 1545, 1546, 1547, 1548, 1549, 1550, 1551, 1552
1553, 1554, 1555, 1556, 1557, 1558, 1559, 1560, 1561, 1562, 1563, 1564, 1565, 1566, 1567, 1568
1569, 1570, 1571, 1572, 1573, 1574, 1575, 1576, 1577, 1578, 1579, 1580, 1581, 1582, 1583, 1584
1585, 1586, 1587, 1588, 1589, 1590, 1591, 1592, 1593, 1594, 1595, 1596, 1597, 1598, 1599, 1600
1601, 1602, 1603, 1604, 1605, 1606, 1607, 1608, 1609, 1610, 1611, 1612, 1613, 1614, 1615, 1616
1617, 1618, 1619, 1620, 1621, 1622, 1623, 1624, 1625, 1626, 1627, 1628, 1629, 1630, 1631, 1632
1633, 1634, 1635, 1636, 1637, 1638, 1639, 1640, 1641, 1642, 1643, 1644, 1645, 1646, 1647, 1648
1649, 1650, 1651, 1652, 1653, 1654, 1655, 1656, 1657, 1658, 1659, 1660, 1661, 1662, 1663, 1664
1665, 1666, 1667, 1668, 1669, 1670, 1671, 1672, 1673, 1674, 1675, 1676, 1677, 1678, 1679, 1680
1681, 1682, 1683, 1684, 1685, 1686, 1687, 1688, 1689, 1690, 1691, 1692, 1693, 1694, 1695, 1696
1697, 1698, 1699
*MATERIAL, NAME="FC300 --- SHARED"
*ELASTIC, TYPE=ISOTROPIC
130000000., 0.27
*DENSITY
7.4e-06
*EXPANSION, TYPE=ISOTROPIC, ZERO=0.
1.2e-05
*SOLID SECTION, MATERIAL="FC300 --- SHARED", ELSET="Solid Section1-1"
1.
