*NODE
1, 0., 0., 0.
2, 0., 0., 150.
3, 30., 0., 0.
4, 30., 0., 150.
5, 30., 30., 0.
6, 30., 30., 150.
7, 0., 30., 0.
8, 0., 30., 150.
9, 0., 0., 8.62450337052276
10, 0., 0., 15.3315896739104
11, 0., 0., 27.0511822851906
12, 0., 0., 36.2492511737931
13, 0., 0., 45.0000030510128
14, 0., 0., 56.9098530510128
15, 0., 0., 65.0000030510128
16, 0., 0., 77.3606646806559
17, 0., 0., 85.0000030510128
18, 0., 0., 96.9098530510128
19, 0., 0., 105.000003051013
20, 0., 0., 117.360664680656
21, 0., 0., 125.000003051013
22, 0., 0., 135.000003051013
23, 0., 0., 142.500001109061
24, 5.00000018998981, 0., 0.
25, 12.0788814012768, 0., 0.
26, 23.0471291399678, 0., 0.
27, 30., 0., 7.50000194195088
28, 30., 0., 15.0000030510128
29, 30., 0., 25.0000030510128
30, 30., 0., 35.0000030510128
31, 30., 0., 45.0000030510128
32, 30., 0., 55.0000030510128
33, 30., 0., 65.0000030510128
34, 30., 0., 75.0000030510128
35, 30., 0., 85.0000030510128
36, 30., 0., 95.0000030510128
37, 30., 0., 105.000003051013
38, 30., 0., 115.000003051013
39, 30., 0., 124.843752929641
40, 30., 0., 133.42620247535
41, 30., 0., 143.359376788318
42, 5.00000018998981, 0., 150.
43, 13.4375001302502, 0., 150.
44, 23.300344581921, 0., 150.
45, 30., 7.39257821473961, 0.
46, 30., 15.6640626382172, 0.
47, 30., 24.3750001660638, 0.
48, 30., 30., 5.62500277374729
49, 30., 30., 15.967656525518
50, 30., 30., 24.29329468029
51, 30., 30., 35.0000030510128
52, 30., 30., 45.6762906419933
53, 30., 30., 54.2704976465128
54, 30., 30., 65.0000030510128
55, 30., 30., 75.7295084555128
56, 30., 30., 84.3237154600322
57, 30., 30., 95.0000030510128
58, 30., 30., 105.000003051013
59, 30., 30., 115.000003051013
60, 30., 30., 126.143461849251
61, 30., 30., 134.687502808269
62, 30., 30., 144.20594205476
63, 30., 6.08376219979702, 150.
64, 30., 15.697679923966, 150.
65, 30., 23.4541620627053, 150.
66, 25.0000001899898, 30., 0.
67, 15.0000001899898, 30., 0.
68, 4.04507516079418, 30., 0.
69, 0., 30., 6.25000249648182
70, 0., 30., 13.9672014644965
71, 0., 30., 26.1803476465128
72, 0., 30., 35.0000030510128
73, 0., 30., 44.2704976465128
74, 0., 30., 55.0000030510128
75, 0., 30., 65.7295084555127
76, 0., 30., 74.3237154600322
77, 0., 30., 85.0000030510128
78, 0., 30., 95.6762906419933
79, 0., 30., 104.270497646513
80, 0., 30., 115.000003051013
81, 0., 30., 125.000003051013
82, 0., 30., 135.000003051013
83, 0., 30., 141.952872197353
84, 22.6434270866807, 30., 150.
85, 14.3750001660638, 30., 150.
86, 5.68391150496314, 30., 150.
87, 0., 23.3852585284634, 0.
88, 0., 15.0000001899898, 0.
89, 0., 6.61474163910108, 0.
90, 0., 21.9528710478925, 150.
91, 0., 15.0000001899898, 150.
92, 0., 7.50000009570392, 150.
93, 6.50000018998981, 0., 5.75539032559651
94, 15.7799495656969, 0., 13.5955827161308
95, 6.68715046990913, 0., 16.5857701798129
96, 16.2686290512096, 0., 4.40219341321645
97, 23.8540991090898, 0., 5.98928822940953
98, 25.4305978425616, 0., 15.4437066026311
99, 22.7639312708898, 0., 24.7451545232773
100, 25.6666667616616, 0., 34.8610155455856
101, 23.9858395220209, 0., 44.7425816627294
102, 25.5207656807616, 0., 54.8345907587565
103, 22.1459012708898, 0., 64.1931004570349
104, 25.2846967616616, 0., 74.8502645839095
105, 22.6701696337085, 0., 84.2991464253676
106, 25.1267857994448, 0., 94.7863299803561
107, 22.7360691090898, 0., 104.547020445183
108, 25.1596967616616, 0., 114.701165819677
109, 23.5139312708898, 0., 124.812202607431
110, 25.1005026232805, 0., 133.947988068447
111, 21.876415878335, 0., 141.145904131913
112, 14.7119580616056, 0., 143.854101970113
113, 6.14590127088981, 0., 144.399912902945
114, 7.08676372835484, 0., 135.788303849796
115, 16.4871005463682, 0., 133.378674170139
116, 15.0924060579172, 0., 124.854101970113
117, 7.11997477123164, 0., 125.706280589718
118, 6.68656619577833, 0., 116.741634119197
119, 15.8557668787533, 0., 114.156781614628
120, 14.0051502103991, 0., 104.763934131913
121, 7.35409910908981, 0., 105.450797851658
122, 6.88981331337989, 0., 96.7272587437498
123, 15.8697883240086, 0., 92.9044221558598
124, 13.4484669015634, 0., 84.7639341319127
125, 7.32623245595841, 0., 85.5116776369677
126, 6.68264784224899, 0., 76.6802004432021
127, 15.7744106895508, 0., 74.0917458071962
128, 13.8635035008165, 0., 64.3819730510127
129, 7.8540991090898, 0., 65.5828507032655
130, 6.42857153713703, 0., 56.6940487250678
131, 15.7560496779921, 0., 53.3456702031767
132, 13.6353134430431, 0., 43.9044986458491
133, 7.14590127088981, 0., 46.3359627094553
134, 7.16312487439769, 0., 36.710428974661
135, 16.0000001899898, 0., 34.3278147262962
136, 14.7291531239982, 0., 24.367238299582
137, 7.8540991090898, 0., 25.8371472408542
138, 30., 6.3653211053511, 6.72566253235244
139, 30., 16.2380082346686, 16.7500030510128
140, 30., 14.6427610492114, 8.52787072508413
141, 30., 7.35409910908981, 15.756184132727
142, 30., 6.90487642091958, 25.6325651855598
143, 30., 15.0474921460675, 35.4959207185262
144, 30., 14.5014753036987, 26.967509348837
145, 30., 7.00000018998981, 35.1428615377662
146, 30., 6.54605274141017, 44.495851635812
147, 30., 15.9181628245123, 55.2528235693163
148, 30., 16.4245618196915, 44.6343285598683
149, 30., 7.46303315725284, 55.0017957604409
150, 30., 6.89365057098845, 64.8541031754428
151, 30., 15.9166221040703, 75.3816952746671
152, 30., 16.2747607427028, 65.7641479447118
153, 30., 7.00000018998981, 74.9999942212338
154, 30., 7.00000018998981, 84.9995939050151
155, 30., 15.4140626885055, 94.9924469785177
156, 30., 15.8412721020426, 85.3796416172995
157, 30., 7.55244966057929, 94.9923191936158
158, 30., 6.85409910908981, 104.843454245202
159, 30., 14.949435766203, 115.011159592922
160, 30., 15.3044483545567, 105.82519165375
161, 30., 7.00000018998981, 114.910787570141
162, 30., 6.48415656434315, 124.665505262093
163, 30., 16.1546792115764, 134.222135376941
164, 30., 13.9012891896404, 123.900570869065
165, 30., 7.21089332118055, 133.839727329587
166, 30., 6.58174483646805, 141.912626283372
167, 30., 15.2953421741951, 143.381973051013
168, 30., 25.0690179297027, 144.750003051013
169, 30., 24.0000001899898, 135.680664537091
170, 30., 23.0018220484748, 126.322349136682
171, 30., 22.8540991090898, 115.050140010014
172, 30., 24.8716178165637, 105.182376087438
173, 30., 23.0000001899898, 94.9975801245724
174, 30., 24.9192829877794, 85.0080315423027
175, 30., 23.5000001899898, 74.9999270513874
176, 30., 25.0133042551714, 65.0000233775479
177, 30., 23.2360691090898, 55.0037720857894
178, 30., 25.2639311758949, 45.0800242951055
179, 30., 23.5000001899898, 35.0534559994273
180, 30., 22.9997971678088, 24.5894286626661
181, 30., 22.8540991090898, 14.2994420446509
182, 30., 22.9839253965485, 6.53731408142891
183, 24.0305524121033, 30., 6.00000305101275
184, 23.2350445598635, 30., 15.3380687561834
185, 22.8260213259675, 30., 25.1297567623055
186, 22.8540991090898, 30., 35.0186287737808
187, 22.396126563301, 30., 45.0405472212684
188, 22.6028635500871, 30., 54.9960587596799
189, 22.1232384491084, 30., 65.0000398047569
190, 22.6898069614319, 30., 75.8541060975485
191, 22.2691395300084, 30., 84.964271152483
192, 22.8540991090898, 30., 95.0091954326164
193, 22.4646244519441, 30., 104.994425237864
194, 23.0000001899898, 30., 114.99111439634
195, 23.6040991090898, 30., 124.561480117087
196, 23.5700189663036, 30., 134.503005451871
197, 22.82384699783, 30., 142.700965636175
198, 14.1929912210436, 30., 143.500003051013
199, 7.83359834689964, 30., 144.650001636413
200, 4.83606907650097, 30., 135.74499590034
201, 15.1083758615491, 30., 133.145904131913
202, 15.8964803131952, 30., 124.732508761811
203, 6.00000018998981, 30., 125.01714364881
204, 4.56686592634917, 30., 115.015073388723
205, 13.9067921334765, 30., 114.99206535651
206, 15.8540991090898, 30., 105.085848071374
207, 5.64590127088981, 30., 104.979647573105
208, 4.39937339613806, 30., 95.0047140812699
209, 13.4282363189357, 30., 95.3824931951825
210, 15.5784489102048, 30., 85.6180330510128
211, 6.85409910908981, 30., 85.0042355715063
212, 4.16666676166157, 30., 75.0000030510128
213, 13.4180366571284, 30., 75.3994225623107
214, 14.2360691090898, 30., 65.0376041855063
215, 6.85409910908981, 30., 65.0513425192042
216, 5.00080040248903, 30., 54.9999396632822
217, 13.5215822147059, 30., 54.9945197154002
218, 14.6180301899898, 30., 44.8315494226363
219, 6.85409910908981, 30., 44.9672274977494
220, 4.25612169296162, 30., 35.0010987264799
221, 13.9186997777901, 30., 35.1492781452656
222, 16.1054011863076, 30., 25.1536319876389
223, 7.47213251591843, 30., 25.0824060507913
224, 6.36768437277715, 30., 14.1273647692748
225, 15.3509091883486, 30., 16.3541019701128
226, 13.7463385159556, 30., 6.61803305101275
227, 6.39590127088981, 30., 5.66387864567033
228, 0., 22.5797191400582, 6.54056714803984
229, 0., 22.814148873329, 15.505466900217
230, 0., 23.0156821715433, 25.9364160076047
231, 0., 22.6180301899898, 35.0833840596378
232, 0., 22.6524835612408, 44.9326234207641
233, 0., 22.314795530485, 55.0006038741035
234, 0., 22.7680769397847, 65.000076708101
235, 0., 22.5937501187436, 75.0000028991604
236, 0., 23.2360691090898, 85.1745327708881
237, 0., 23.1459012708898, 95.1183127347958
238, 0., 23.4721325159184, 104.766537556644
239, 0., 23.1459012708898, 114.773522101692
240, 0., 22.919430602462, 124.694856519415
241, 0., 22.3797908233194, 133.571543924048
242, 0., 22.2836886739917, 143.434953180926
243, 0., 14.7781039961851, 142.277870725084
244, 0., 6.9226957995498, 143.350937654964
245, 0., 7.53238048353372, 133.970993121303
246, 0., 14.9774044552593, 134.156723481603
247, 0., 14.9127301583132, 124.042563994177
248, 0., 6.57424082261191, 125.797834221234
249, 0., 6.85409910908981, 115.665971001816
250, 0., 14.2221325159184, 114.992009787302
251, 0., 14.8750001840526, 104.999923475039
252, 0., 6.5317112200901, 105.854101952808
253, 0., 7.35409910908981, 95.3727302602739
254, 0., 14.5139312708898, 95.1433925628642
255, 0., 14.7870289479883, 84.3819730510127
256, 0., 6.64344259000195, 85.1459041144277
257, 0., 7.35505673103979, 75.8541019670526
258, 0., 14.5139312708898, 75.0676323588527
259, 0., 15.061493182325, 64.1459041319128
260, 0., 6.75000014249235, 65.0000030508306
261, 0., 6.96079158283477, 55.3823484035148
262, 0., 14.2092507934074, 55.1213455833229
263, 0., 14.9881191221456, 44.1496364930981
264, 0., 6.70439256733822, 45.8557410114246
265, 0., 7.54152477911698, 35.8626514746856
266, 0., 14.7914591115355, 34.7747983882612
267, 0., 14.8626161314154, 24.8975589955118
268, 0., 7.12674238421757, 25.8613879100543
269, 0., 6.56454210951556, 16.3654010271171
270, 0., 13.8268758354698, 15.2303108092963
271, 0., 14.2500343649772, 7.3592773897835
272, 0., 6.26103546565876, 6.64590355970814
273, 6.64590127088981, 23.9617206676298, 0.
274, 14.3858470139538, 22.6558941393491, 0.
275, 23.6635502698573, 24.6158693983942, 0.
276, 24.1522122580678, 16.4413658882294, 0.
277, 23.0647821218039, 6.85409910908981, 0.
278, 14.7940222653438, 6.11316904285527, 0.
279, 17.3585400151663, 13.0062668094398, 0.
280, 8.30036041211237, 14.3432991608057, 0.
281, 6.85409910908981, 4.7612329091842, 0.
282, 7.76066208155396, 7.44375369483028, 150.
283, 15.0000001899898, 15.0000001899898, 150.
284, 17.1822240855699, 6.78042431393351, 150.
285, 5.2360690140949, 15.0893567103977, 150.
286, 7.25149951488159, 23.1751127119845, 150.
287, 15.570563528964, 23.4199760269101, 150.
288, 22.3980900998062, 22.1459012708898, 150.
289, 22.7813213709595, 14.5320684984834, 150.
290, 24.4584011559817, 6.99377364981778, 150.
291, 6.8587140132331, 5.22023267496606, 5.47593901601
292, 15.0787851767681, 6.51351345692433, 5.36923548061435
293, 7.97079886266482, 12.546928379242, 6.98031491335894
294, 14.10286594299, 13.5617730942474, 7.53847253476731
295, 8.64294049768264, 5.16980324710419, 16.5283165816032
296, 15.5055559291311, 6.88722954346961, 13.7857055178013
297, 8.19567557457064, 13.0193745105943, 14.3215417581863
298, 15.2804716400282, 16.1412405606944, 15.2373915687634
299, 24.5530157826819, 14.9855798704962, 17.131814458321
300, 13.6765489267012, 24.031352181353, 16.0717745596791
301, 23.5774187942819, 22.9051684952728, 14.6507941136005
302, 14.4842623636722, 14.7780985764052, 25.310129224668
303, 21.9616608976337, 14.1720453173738, 27.8068251161103
304, 17.733234855383, 22.4966311060694, 24.6733948347963
305, 23.6736645294727, 22.3722494336713, 24.1571864759288
306, 24.07476213649, 21.9921411590269, 34.624166126488
307, 24.327866939904, 22.3549554436067, 45.2979166119432
308, 23.6097641769093, 22.1153343778838, 55.3042061965859
309, 24.0334126345544, 21.866199631732, 65.3835744001314
310, 22.7503782713784, 23.0347951784612, 75.7123771372797
311, 24.0418889306486, 22.2081143505085, 85.8584181949562
312, 23.7898671943012, 22.0981397487127, 95.280023284075
313, 24.2565389497544, 21.6618297610822, 105.409086580525
314, 24.0057998599209, 21.9454751077954, 115.395087223919
315, 24.0895184063535, 21.6822401005682, 126.852090348815
316, 24.7634769001801, 23.6308744002245, 135.312681016435
317, 24.0494371418361, 22.3704271868655, 143.69385396277
318, 16.2140832389762, 23.2854064417258, 142.209077148811
319, 7.66999754760576, 23.0171488111798, 144.08263366956
320, 7.19844700430428, 14.8388767327659, 142.740431672757
321, 12.9041377704343, 13.850630747836, 145.092937713273
322, 6.68222813542859, 6.46015022142151, 143.963001333782
323, 16.227384105795, 5.70437570402509, 142.835919060238
324, 23.9808678459723, 5.59085961805175, 139.429680389848
325, 21.6111632594162, 13.9483640542156, 144.057795354417
326, 23.0718175454074, 5.88339973393822, 133.23239796493
327, 24.5236720106891, 14.4180202632308, 134.341402307625
328, 23.0950472173685, 5.73270605230089, 124.211947617655
329, 25.0000001899898, 15.0000001899898, 125.000003051013
330, 22.8737251249634, 6.40497944326309, 114.57153739326
331, 25.1827228596269, 12.7881647457488, 116.334616223872
332, 22.274744905705, 5.83650381670874, 103.718426167506
333, 21.1909834099181, 13.7446554050962, 107.016009251957
334, 22.2884840494077, 6.94776647701921, 93.528688335928
335, 24.5934732669148, 13.2140801654547, 95.4671331120124
336, 22.2533711223587, 5.54997463780625, 84.655587263355
337, 21.2566163980906, 13.0608388184811, 87.2087271120239
338, 22.4788599590343, 6.81666687590626, 74.1002228542953
339, 24.8252534457003, 13.1974051302931, 76.2460094572677
340, 22.439754839487, 5.78387644321263, 63.8151298227689
341, 21.2746538214372, 13.9805784662283, 66.9895742589876
342, 23.3725889347714, 5.80405730192758, 54.2146548075458
343, 24.5837502845374, 13.1338174871128, 55.5504449412036
344, 23.8961420538306, 5.26005919635973, 44.5098273481319
345, 21.8646456769029, 12.966234163894, 47.3134343437082
346, 23.3946290875683, 5.75225175616237, 34.3813994997505
347, 24.8228448299068, 13.5332921888802, 36.3498498702395
348, 22.4346049432936, 5.7649667375108, 24.1417699966413
349, 23.0278185974152, 6.65312392398654, 14.6166503367301
350, 23.8506212276524, 6.06837425639507, 6.2058395687487
351, 22.4022871782607, 14.236799298713, 7.94188458132651
352, 23.5340139032141, 22.2765824479256, 5.97527209701622
353, 16.1352877085692, 22.4830945274734, 7.11071250317138
354, 7.31421902480424, 22.5192547087907, 6.16062368407197
355, 8.1968653340981, 22.8296250384571, 13.9508850938545
356, 7.74731552621965, 23.2682139245539, 25.6374088728481
357, 6.41861087429856, 24.1214111345705, 34.8653961502608
358, 13.9506912445815, 23.7669713298917, 35.4523249388443
359, 7.37718038592313, 23.2632525227767, 45.0226778996125
360, 17.0583564146896, 23.6563499303187, 44.4381438336659
361, 6.42374205480029, 23.3466966112069, 54.9188447472401
362, 13.2898403164913, 23.4828643205063, 55.0455950051297
363, 7.34217757586555, 23.2891406277315, 65.0341516929426
364, 17.1309080836948, 23.8478324001451, 65.9473908953925
365, 5.81585544380315, 24.5323244077521, 75.0061992128294
366, 13.841947131403, 24.1439685821181, 75.436413878854
367, 7.11582099505015, 24.403017554479, 85.7324737920299
368, 16.9409463662722, 22.6724798197189, 85.2285610938959
369, 6.55596424517724, 24.7462337539698, 95.0983066311296
370, 13.5653726067406, 24.0945504485235, 95.5615720108026
371, 5.7477951687205, 24.4710805844667, 105.011834157365
372, 17.3093057760219, 23.068859997138, 105.109359212815
373, 5.55017159172177, 24.6142119894691, 114.970894238555
374, 13.311453488906, 24.3173501559943, 114.700183389892
375, 6.24790441036899, 24.1364872779136, 124.588071162358
376, 17.1006621033001, 22.7793571587241, 125.994866804651
377, 10.3265687721881, 22.4310440963076, 134.750187726534
378, 16.1214641115862, 22.6683041104835, 134.470277593395
379, 5.94556461805648, 14.8464676594357, 125.251740549148
380, 12.4683258811999, 14.132889028324, 125.895605081321
381, 5.82079689678461, 14.9559542994904, 133.90617419685
382, 15.1832548440886, 14.4552919035712, 133.981853884914
383, 6.02710742756716, 6.47058836940457, 126.217963543986
384, 14.5310346761745, 5.29411781908741, 124.316289597359
385, 9.97857269929864, 7.57721212450664, 134.620796490667
386, 17.0839331451148, 8.78432004226262, 131.52333359425
387, 8.70037008694558, 5.34819782091032, 116.522789595476
388, 14.9068240419866, 6.99508167045781, 113.718797964423
389, 5.46505600642795, 5.93750013061799, 106.40588414379
390, 13.7344981594426, 6.01672870802754, 104.191560668802
391, 6.51104276520088, 13.1125718272948, 105.425038478774
392, 12.8973051738774, 14.2641559436073, 105.704487015975
393, 7.55594452644129, 13.575458766565, 114.035443552892
394, 15.9414440789601, 14.0895540973774, 115.312905359071
395, 8.71117977986897, 5.47194274666938, 96.4191513416903
396, 15.3445685682225, 6.50668691939402, 93.8244728625841
397, 7.2225979490245, 13.3771258947077, 95.1660511841495
398, 13.3534916279165, 15.6712299155385, 95.7850477181286
399, 5.45908270043719, 5.93750013061799, 86.4061614095069
400, 13.1257969911349, 6.51904584104078, 83.786637537983
401, 7.51798063281506, 13.2793528993802, 85.1848958024427
402, 13.1470354739483, 14.6105324721074, 85.7827361608239
403, 8.63482952456962, 5.63615855277037, 76.4534572042728
404, 14.9556770034841, 7.03022273130614, 73.7267878851429
405, 7.9343284610235, 13.3912958526013, 74.1042544267811
406, 15.0000001899898, 15.0000001899898, 75.0000030510128
407, 5.50390637631354, 5.9375001291337, 66.3959203904292
408, 13.6927151538488, 6.03812612503236, 64.1906148422987
409, 7.65605868999228, 13.3837979435899, 65.233813450169
410, 13.2079261001864, 14.1424766452134, 65.3029814376961
411, 7.41717457487089, 5.15049606904078, 56.0456070595592
412, 15.253513531308, 6.31352688506249, 53.9554289062289
413, 8.06180397320571, 13.1901261444241, 54.0797820600968
414, 15.0000001899898, 15.0000001899898, 55.0000030510128
415, 6.31370639582843, 6.05015374218716, 47.1426411460011
416, 13.7690521348907, 5.46565191330748, 44.2412056835169
417, 7.90290780064081, 13.1305114302858, 45.1649022710332
418, 13.2749981801218, 14.8745178673765, 45.2253117967124
419, 8.92199219244424, 5.42377709880948, 36.583033486577
420, 15.2179536681589, 5.73623279047317, 34.4912261232709
421, 8.29442086459262, 13.1637200985461, 34.2068091330445
422, 15.305955842017, 16.0509982396818, 35.3431244436809
423, 6.47193331167571, 5.81836427405012, 26.6560078887121
424, 8.54733417572314, 13.3544194086791, 25.4202395533802
425, 14.3633647823114, 5.51742772847488, 24.6139366355519
*NSET, NSET="Fixed (26)-1"
1, 3, 5, 7, 24, 25, 26, 45, 46, 47, 66, 67, 68, 87, 88, 89
273, 274, 275, 276, 277, 278, 279, 280, 281
*NSET, NSET="Force (29)-1"
283
*ELEMENT, TYPE=C3D4
1, 1, 24, 89, 9
2, 93, 24, 9, 291
3, 281, 89, 24, 291
4, 291, 89, 24, 9
5, 9, 291, 89, 272
6, 278, 281, 25, 291
7, 291, 96, 25, 292
8, 291, 24, 281, 25
9, 25, 291, 24, 93
10, 291, 278, 281, 280
11, 112, 113, 43, 322
12, 271, 88, 280, 89
13, 293, 280, 291, 271
14, 281, 280, 89, 291
15, 291, 280, 89, 271
16, 271, 89, 291, 272
17, 292, 278, 280, 279
18, 292, 280, 293, 294
19, 280, 279, 294, 292
20, 296, 297, 292, 291
21, 112, 114, 113, 322
22, 322, 382, 320, 321
23, 10, 269, 95, 9
24, 295, 291, 95, 269
25, 95, 93, 9, 291
26, 291, 9, 95, 269
27, 269, 291, 9, 272
28, 292, 291, 96, 94
29, 296, 291, 94, 295
30, 94, 95, 295, 291
31, 282, 283, 284, 321
32, 296, 292, 94, 291
33, 93, 94, 291, 95
34, 291, 271, 272, 269
35, 291, 269, 295, 297
36, 293, 291, 297, 271
37, 271, 291, 297, 269
38, 269, 297, 271, 270
39, 298, 294, 296, 297
40, 297, 292, 293, 294
41, 292, 279, 294, 350
42, 112, 115, 114, 323
43, 294, 297, 292, 296
44, 296, 297, 291, 295
45, 245, 22, 114, 23
46, 113, 114, 23, 322
47, 385, 114, 322, 245
48, 245, 114, 322, 23
49, 23, 322, 245, 244
50, 385, 386, 323, 115
51, 112, 114, 322, 323
52, 292, 277, 279, 350
53, 321, 320, 319, 382
54, 115, 114, 323, 385
55, 385, 114, 323, 322
56, 322, 245, 244, 243
57, 320, 381, 322, 243
58, 381, 385, 322, 245
59, 245, 322, 381, 243
60, 243, 381, 245, 246
61, 322, 381, 320, 382
62, 323, 386, 385, 382
63, 322, 385, 381, 382
64, 382, 322, 385, 323
65, 322, 282, 284, 321
66, 321, 322, 382, 323
67, 2, 92, 42, 23
68, 92, 282, 42, 322
69, 42, 113, 23, 322
70, 322, 23, 42, 92
71, 92, 322, 23, 244
72, 322, 284, 43, 323
73, 112, 322, 43, 323
74, 322, 42, 113, 43
75, 292, 26, 277, 350
76, 43, 322, 42, 282
77, 350, 94, 349, 296
78, 91, 243, 285, 92
79, 243, 322, 320, 285
80, 285, 282, 92, 322
81, 322, 92, 285, 243
82, 243, 322, 92, 244
83, 322, 321, 320, 285
84, 285, 283, 282, 321
85, 323, 322, 284, 321
86, 296, 350, 292, 294
87, 285, 321, 282, 322
88, 277, 276, 279, 350
89, 277, 278, 26, 292
90, 292, 97, 26, 350
91, 292, 25, 278, 26
92, 26, 292, 25, 96
93, 111, 112, 44, 323
94, 94, 97, 96, 292
95, 3, 45, 26, 27
96, 97, 27, 26, 350
97, 45, 277, 26, 350
98, 350, 26, 45, 27
99, 27, 45, 350, 138
100, 350, 279, 294, 351
101, 277, 279, 278, 292
102, 279, 276, 351, 350
103, 296, 349, 348, 94
104, 96, 97, 26, 292
105, 324, 115, 326, 110
106, 46, 140, 276, 45
107, 350, 276, 351, 140
108, 276, 277, 45, 350
109, 350, 45, 276, 140
110, 140, 350, 45, 138
111, 349, 350, 98, 94
112, 98, 97, 94, 350
113, 111, 115, 112, 323
114, 110, 115, 326, 328
115, 4, 290, 63, 41
116, 296, 350, 94, 292
117, 141, 28, 98, 27
118, 98, 350, 349, 141
119, 97, 98, 27, 350
120, 350, 98, 27, 141
121, 141, 27, 350, 138
122, 299, 351, 349, 298
123, 351, 350, 349, 296
124, 351, 296, 349, 298
125, 298, 351, 296, 294
126, 94, 97, 292, 350
127, 296, 351, 350, 294
128, 350, 138, 140, 141
129, 141, 139, 140, 299
130, 349, 351, 299, 141
131, 141, 351, 299, 140
132, 140, 141, 351, 350
133, 350, 141, 351, 349
134, 386, 326, 324, 115
135, 111, 115, 323, 324
136, 274, 67, 354, 353
137, 167, 64, 289, 290
138, 290, 284, 325, 323
139, 386, 115, 324, 323
140, 40, 165, 110, 41
141, 110, 111, 41, 324
142, 324, 110, 326, 165
143, 165, 324, 110, 41
144, 41, 165, 324, 166
145, 323, 382, 321, 325
146, 324, 326, 386, 327
147, 323, 386, 382, 327
148, 327, 323, 386, 324
149, 323, 327, 382, 325
150, 325, 323, 327, 324
151, 324, 166, 165, 167
152, 324, 327, 325, 167
153, 324, 326, 327, 165
154, 165, 327, 324, 167
155, 167, 165, 327, 163
156, 323, 290, 44, 324
157, 111, 323, 44, 324
158, 323, 43, 112, 44
159, 280, 274, 354, 353
160, 44, 323, 43, 284
161, 167, 166, 63, 290
162, 4, 44, 290, 41
163, 182, 276, 47, 46
164, 111, 44, 41, 324
165, 324, 44, 41, 290
166, 290, 41, 324, 166
167, 289, 284, 283, 325
168, 321, 283, 284, 325
169, 352, 276, 351, 353
170, 290, 323, 325, 324
171, 325, 284, 321, 323
172, 63, 41, 290, 166
173, 167, 64, 290, 63
174, 167, 166, 290, 324
175, 325, 289, 290, 167
176, 351, 276, 352, 182
177, 279, 353, 276, 274
178, 324, 290, 167, 325
179, 288, 167, 65, 64
180, 352, 275, 276, 353
181, 351, 294, 353, 279
182, 325, 316, 317, 167
183, 353, 275, 276, 274
184, 47, 182, 275, 276
185, 276, 275, 352, 182
186, 182, 140, 351, 276
187, 167, 169, 163, 316
188, 181, 182, 140, 301
189, 46, 182, 276, 140
190, 183, 66, 275, 67
191, 275, 353, 352, 183
192, 274, 275, 67, 353
193, 353, 275, 67, 183
194, 183, 67, 353, 226
195, 275, 182, 47, 5
196, 182, 48, 5, 183
197, 182, 275, 352, 183
198, 183, 182, 275, 5
199, 5, 275, 183, 66
200, 300, 298, 353, 301
201, 299, 298, 301, 351
202, 352, 351, 301, 353
203, 353, 351, 301, 298
204, 298, 353, 351, 294
205, 301, 351, 352, 182
206, 181, 140, 139, 301
207, 299, 139, 140, 301
208, 325, 167, 317, 288
209, 182, 140, 301, 351
210, 351, 140, 301, 299
211, 353, 183, 226, 225
212, 301, 353, 300, 225
213, 301, 352, 353, 183
214, 183, 353, 301, 225
215, 225, 301, 183, 184
216, 183, 182, 48, 49
217, 184, 183, 49, 301
218, 182, 183, 352, 301
219, 301, 182, 183, 49
220, 49, 301, 182, 181
221, 317, 316, 325, 318
222, 382, 378, 318, 316
223, 325, 321, 318, 382
224, 382, 318, 325, 316
225, 316, 325, 382, 327
226, 167, 316, 317, 168
227, 168, 169, 167, 316
228, 327, 167, 163, 316
229, 297, 354, 355, 298
230, 224, 226, 354, 227
231, 325, 316, 167, 327
232, 201, 198, 318, 197
233, 316, 318, 317, 197
234, 318, 316, 378, 201
235, 201, 318, 316, 197
236, 197, 316, 201, 196
237, 62, 168, 197, 61
238, 168, 316, 317, 197
239, 197, 196, 61, 316
240, 316, 61, 197, 168
241, 168, 316, 61, 169
242, 325, 283, 289, 288
243, 318, 325, 317, 288
244, 318, 321, 325, 283
245, 283, 325, 318, 288
246, 288, 318, 283, 287
247, 168, 65, 288, 167
248, 167, 168, 317, 288
249, 325, 288, 289, 167
250, 318, 198, 201, 200
251, 274, 273, 280, 354
252, 64, 288, 167, 289
253, 84, 197, 288, 85
254, 197, 318, 317, 288
255, 288, 287, 85, 318
256, 318, 85, 288, 197
257, 197, 318, 85, 198
258, 197, 168, 62, 6
259, 168, 65, 6, 288
260, 168, 197, 317, 288
261, 288, 168, 197, 6
262, 6, 197, 288, 84
263, 280, 88, 271, 87
264, 280, 271, 293, 354
265, 280, 273, 87, 354
266, 354, 87, 280, 271
267, 271, 354, 87, 228
268, 294, 293, 354, 280
269, 274, 280, 279, 353
270, 115, 383, 386, 384
271, 356, 297, 355, 298
272, 279, 353, 280, 294
273, 294, 353, 280, 354
274, 7, 87, 68, 69
275, 227, 69, 68, 354
276, 87, 273, 68, 354
277, 354, 68, 87, 69
278, 69, 87, 354, 228
279, 273, 274, 67, 354
280, 226, 227, 67, 354
281, 68, 354, 273, 67
282, 386, 383, 380, 384
283, 354, 67, 68, 227
284, 198, 85, 319, 318
285, 297, 271, 270, 229
286, 355, 354, 297, 229
287, 354, 293, 297, 271
288, 271, 297, 354, 229
289, 229, 354, 271, 228
290, 298, 354, 355, 353
291, 297, 294, 293, 354
292, 298, 353, 294, 354
293, 298, 354, 294, 297
294, 420, 425, 135, 423
295, 224, 226, 353, 354
296, 229, 70, 224, 69
297, 354, 229, 355, 224
298, 227, 224, 69, 354
299, 354, 224, 69, 229
300, 229, 69, 354, 228
301, 353, 225, 226, 224
302, 353, 354, 355, 224
303, 318, 198, 200, 319
304, 423, 297, 424, 425
305, 225, 224, 353, 300
306, 67, 226, 354, 353
307, 381, 246, 243, 241
308, 381, 243, 320, 319
309, 377, 381, 319, 241
310, 241, 381, 319, 243
311, 243, 319, 241, 242
312, 318, 378, 382, 377
313, 382, 320, 319, 381
314, 318, 382, 321, 319
315, 282, 284, 43, 322
316, 382, 319, 318, 377
317, 377, 382, 319, 381
318, 82, 241, 200, 83
319, 200, 199, 83, 319
320, 241, 319, 377, 200
321, 200, 241, 319, 83
322, 83, 241, 319, 242
323, 319, 198, 200, 199
324, 318, 378, 377, 201
325, 286, 287, 283, 319
326, 201, 318, 200, 377
327, 377, 318, 200, 319
328, 285, 243, 91, 90
329, 286, 285, 90, 319
330, 243, 285, 320, 319
331, 319, 243, 285, 90
332, 90, 319, 243, 242
333, 319, 320, 321, 285
334, 286, 283, 285, 319
335, 318, 283, 287, 319
336, 85, 286, 86, 319
337, 285, 319, 283, 321
338, 321, 319, 283, 318
339, 8, 86, 90, 83
340, 286, 90, 86, 319
341, 199, 86, 83, 319
342, 319, 86, 83, 90
343, 90, 83, 319, 242
344, 287, 286, 85, 319
345, 199, 198, 85, 319
346, 319, 199, 86, 85
347, 95, 136, 94, 425
348, 287, 319, 85, 318
349, 95, 269, 10, 11
350, 137, 95, 11, 423
351, 269, 95, 295, 423
352, 423, 269, 95, 11
353, 11, 423, 269, 268
354, 295, 296, 425, 94
355, 137, 136, 95, 425
356, 423, 137, 95, 425
357, 421, 423, 424, 425
358, 94, 95, 425, 295
359, 295, 95, 425, 423
360, 297, 270, 269, 267
361, 424, 297, 423, 267
362, 297, 295, 423, 269
363, 269, 423, 297, 267
364, 267, 269, 423, 268
365, 425, 297, 424, 302
366, 297, 298, 302, 425
367, 415, 421, 417, 416
368, 423, 297, 425, 295
369, 425, 297, 298, 296
370, 296, 425, 297, 295
371, 12, 265, 134, 11
372, 419, 423, 134, 265
373, 134, 137, 11, 423
374, 423, 11, 134, 265
375, 265, 423, 11, 268
376, 425, 137, 136, 135
377, 420, 423, 135, 419
378, 135, 134, 419, 423
379, 412, 416, 131, 415
380, 425, 135, 423, 137
381, 137, 135, 423, 134
382, 423, 267, 268, 265
383, 423, 265, 419, 421
384, 424, 423, 421, 267
385, 267, 423, 421, 265
386, 265, 421, 267, 266
387, 422, 302, 420, 421
388, 421, 425, 424, 302
389, 412, 413, 416, 415
390, 134, 132, 135, 416
391, 302, 421, 425, 420
392, 420, 421, 423, 419
393, 134, 265, 12, 13
394, 133, 134, 13, 415
395, 265, 134, 419, 415
396, 415, 265, 134, 13
397, 13, 415, 265, 264
398, 419, 420, 416, 135
399, 133, 132, 134, 416
400, 415, 133, 134, 416
401, 413, 415, 417, 416
402, 135, 134, 416, 419
403, 419, 134, 416, 415
404, 421, 266, 265, 263
405, 417, 421, 415, 263
406, 421, 419, 415, 265
407, 265, 415, 421, 263
408, 263, 265, 415, 264
409, 416, 421, 417, 418
410, 421, 422, 418, 416
411, 407, 413, 409, 408
412, 415, 421, 416, 419
413, 416, 421, 422, 420
414, 420, 416, 421, 419
415, 14, 261, 130, 13
416, 411, 415, 130, 261
417, 130, 133, 13, 415
418, 415, 13, 130, 261
419, 261, 415, 13, 264
420, 416, 133, 132, 131
421, 412, 415, 131, 411
422, 131, 130, 411, 415
423, 404, 408, 127, 407
424, 416, 131, 415, 133
425, 133, 131, 415, 130
426, 415, 263, 264, 261
427, 415, 261, 411, 413
428, 417, 415, 413, 263
429, 263, 415, 413, 261
430, 261, 413, 263, 262
431, 414, 418, 412, 413
432, 413, 416, 417, 418
433, 404, 405, 408, 407
434, 130, 128, 131, 408
435, 418, 413, 416, 412
436, 412, 413, 415, 411
437, 130, 261, 14, 15
438, 129, 130, 15, 407
439, 261, 130, 411, 407
440, 407, 261, 130, 15
441, 15, 407, 261, 260
442, 411, 412, 408, 131
443, 129, 128, 130, 408
444, 407, 129, 130, 408
445, 405, 407, 409, 408
446, 131, 130, 408, 411
447, 411, 130, 408, 407
448, 413, 262, 261, 259
449, 409, 413, 407, 259
450, 413, 411, 407, 261
451, 261, 407, 413, 259
452, 259, 261, 407, 260
453, 408, 413, 409, 410
454, 413, 414, 410, 408
455, 399, 405, 401, 400
456, 407, 413, 408, 411
457, 408, 413, 414, 412
458, 412, 408, 413, 411
459, 16, 257, 126, 15
460, 403, 407, 126, 257
461, 126, 129, 15, 407
462, 407, 15, 126, 257
463, 257, 407, 15, 260
464, 408, 129, 128, 127
465, 404, 407, 127, 403
466, 127, 126, 403, 407
467, 396, 400, 123, 399
468, 408, 127, 407, 129
469, 129, 127, 407, 126
470, 407, 259, 260, 257
471, 407, 257, 403, 405
472, 409, 407, 405, 259
473, 259, 407, 405, 257
474, 257, 405, 259, 258
475, 406, 410, 404, 405
476, 405, 408, 409, 410
477, 396, 397, 400, 399
478, 126, 124, 127, 400
479, 410, 405, 408, 404
480, 404, 405, 407, 403
481, 126, 257, 16, 17
482, 125, 126, 17, 399
483, 257, 126, 403, 399
484, 399, 257, 126, 17
485, 17, 399, 257, 256
486, 403, 404, 400, 127
487, 125, 124, 126, 400
488, 399, 125, 126, 400
489, 397, 399, 401, 400
490, 127, 126, 400, 403
491, 403, 126, 400, 399
492, 405, 258, 257, 255
493, 401, 405, 399, 255
494, 405, 403, 399, 257
495, 257, 399, 405, 255
496, 255, 257, 399, 256
497, 400, 405, 401, 402
498, 405, 406, 402, 400
499, 389, 397, 391, 390
500, 399, 405, 400, 403
501, 400, 405, 406, 404
502, 404, 400, 405, 403
503, 18, 253, 122, 17
504, 395, 399, 122, 253
505, 122, 125, 17, 399
506, 399, 17, 122, 253
507, 253, 399, 17, 256
508, 400, 125, 124, 123
509, 396, 399, 123, 395
510, 123, 122, 395, 399
511, 388, 390, 119, 389
512, 400, 123, 399, 125
513, 125, 123, 399, 122
514, 399, 255, 256, 253
515, 399, 253, 395, 397
516, 401, 399, 397, 255
517, 255, 399, 397, 253
518, 253, 397, 255, 254
519, 398, 402, 396, 397
520, 397, 400, 401, 402
521, 388, 393, 390, 389
522, 122, 120, 123, 390
523, 402, 397, 400, 396
524, 396, 397, 399, 395
525, 122, 253, 18, 19
526, 121, 122, 19, 389
527, 253, 122, 395, 389
528, 389, 253, 122, 19
529, 19, 389, 253, 252
530, 395, 396, 390, 123
531, 121, 120, 122, 390
532, 389, 121, 122, 390
533, 393, 389, 391, 390
534, 123, 122, 390, 395
535, 395, 122, 390, 389
536, 397, 254, 253, 251
537, 391, 397, 389, 251
538, 397, 395, 389, 253
539, 253, 389, 397, 251
540, 251, 253, 389, 252
541, 390, 397, 391, 392
542, 397, 398, 392, 390
543, 94, 99, 98, 348
544, 389, 397, 390, 395
545, 390, 397, 398, 396
546, 396, 390, 397, 395
547, 20, 249, 118, 19
548, 387, 389, 118, 249
549, 118, 121, 19, 389
550, 389, 19, 118, 249
551, 249, 389, 19, 252
552, 390, 121, 120, 119
553, 388, 389, 119, 387
554, 119, 118, 387, 389
555, 386, 384, 380, 329
556, 390, 119, 389, 121
557, 121, 119, 389, 118
558, 389, 251, 252, 249
559, 389, 249, 387, 393
560, 391, 389, 393, 251
561, 251, 389, 393, 249
562, 249, 393, 251, 250
563, 394, 392, 388, 393
564, 393, 390, 391, 392
565, 386, 385, 380, 383
566, 118, 116, 119, 384
567, 392, 393, 390, 388
568, 388, 393, 389, 387
569, 118, 249, 20, 21
570, 117, 118, 21, 383
571, 249, 118, 387, 383
572, 383, 249, 118, 21
573, 21, 383, 249, 248
574, 387, 388, 384, 119
575, 117, 116, 118, 384
576, 383, 117, 118, 384
577, 348, 135, 346, 420
578, 119, 118, 384, 387
579, 387, 118, 384, 383
580, 393, 250, 249, 247
581, 379, 393, 383, 247
582, 393, 387, 383, 249
583, 249, 383, 393, 247
584, 247, 249, 383, 248
585, 383, 393, 379, 380
586, 393, 394, 380, 384
587, 393, 384, 380, 383
588, 383, 393, 384, 387
589, 384, 393, 394, 388
590, 388, 384, 393, 387
591, 114, 22, 245, 21
592, 114, 245, 385, 383
593, 114, 117, 21, 383
594, 383, 21, 114, 245
595, 245, 383, 21, 248
596, 115, 385, 386, 383
597, 116, 117, 115, 384
598, 385, 115, 114, 383
599, 383, 115, 114, 117
600, 117, 383, 115, 384
601, 381, 245, 246, 247
602, 379, 383, 381, 247
603, 245, 381, 385, 383
604, 383, 245, 381, 247
605, 247, 383, 245, 248
606, 344, 131, 342, 412
607, 381, 383, 379, 380
608, 382, 385, 381, 380
609, 380, 385, 381, 383
610, 385, 380, 382, 386
611, 94, 349, 348, 98
612, 136, 99, 94, 348
613, 425, 136, 94, 348
614, 420, 346, 344, 135
615, 111, 110, 115, 324
616, 296, 94, 348, 425
617, 98, 28, 141, 29
618, 98, 99, 29, 348
619, 98, 141, 349, 348
620, 348, 98, 141, 29
621, 29, 141, 348, 142
622, 425, 298, 302, 303
623, 298, 299, 303, 348
624, 298, 348, 303, 425
625, 425, 298, 348, 296
626, 348, 298, 299, 349
627, 349, 348, 298, 296
628, 299, 141, 139, 144
629, 348, 299, 303, 144
630, 348, 349, 299, 141
631, 141, 299, 348, 144
632, 144, 348, 141, 142
633, 346, 348, 100, 135
634, 100, 99, 135, 348
635, 425, 135, 136, 348
636, 101, 100, 135, 344
637, 340, 127, 338, 404
638, 420, 348, 135, 425
639, 145, 30, 100, 29
640, 100, 348, 346, 145
641, 99, 100, 29, 348
642, 348, 100, 29, 145
643, 145, 29, 348, 142
644, 347, 303, 346, 422
645, 303, 348, 346, 420
646, 303, 420, 346, 422
647, 422, 303, 420, 302
648, 420, 303, 348, 425
649, 425, 420, 303, 302
650, 348, 142, 144, 145
651, 145, 143, 144, 347
652, 346, 303, 347, 145
653, 145, 303, 347, 144
654, 144, 145, 303, 348
655, 348, 145, 303, 346
656, 135, 346, 344, 100
657, 101, 135, 132, 344
658, 416, 132, 135, 344
659, 412, 342, 340, 131
660, 131, 101, 132, 344
661, 420, 135, 344, 416
662, 100, 30, 145, 31
663, 100, 101, 31, 344
664, 100, 145, 346, 344
665, 344, 100, 145, 31
666, 31, 145, 344, 146
667, 416, 422, 418, 345
668, 422, 347, 345, 344
669, 422, 344, 345, 416
670, 416, 422, 344, 420
671, 344, 422, 347, 346
672, 346, 344, 422, 420
673, 347, 145, 143, 148
674, 344, 347, 345, 148
675, 344, 346, 347, 145
676, 145, 347, 344, 148
677, 148, 344, 145, 146
678, 342, 344, 102, 131
679, 102, 101, 131, 344
680, 416, 131, 132, 344
681, 103, 102, 131, 340
682, 336, 123, 334, 396
683, 412, 344, 131, 416
684, 149, 32, 102, 31
685, 102, 344, 342, 149
686, 101, 102, 31, 344
687, 344, 102, 31, 149
688, 149, 31, 344, 146
689, 343, 345, 342, 414
690, 345, 344, 342, 412
691, 345, 412, 342, 414
692, 414, 345, 412, 418
693, 412, 345, 344, 416
694, 416, 412, 345, 418
695, 344, 146, 148, 149
696, 149, 147, 148, 343
697, 342, 345, 343, 149
698, 149, 345, 343, 148
699, 148, 149, 345, 344
700, 344, 149, 345, 342
701, 131, 342, 340, 102
702, 103, 131, 128, 340
703, 408, 128, 131, 340
704, 404, 338, 336, 127
705, 127, 103, 128, 340
706, 412, 131, 340, 408
707, 102, 32, 149, 33
708, 102, 103, 33, 340
709, 102, 149, 342, 340
710, 340, 102, 149, 33
711, 33, 149, 340, 150
712, 408, 414, 410, 341
713, 414, 343, 341, 340
714, 414, 340, 341, 408
715, 408, 414, 340, 412
716, 340, 414, 343, 342
717, 342, 340, 414, 412
718, 343, 149, 147, 152
719, 340, 343, 341, 152
720, 340, 342, 343, 149
721, 149, 343, 340, 152
722, 152, 340, 149, 150
723, 338, 340, 104, 127
724, 104, 103, 127, 340
725, 408, 127, 128, 340
726, 105, 104, 127, 336
727, 332, 119, 330, 388
728, 404, 340, 127, 408
729, 153, 34, 104, 33
730, 104, 340, 338, 153
731, 103, 104, 33, 340
732, 340, 104, 33, 153
733, 153, 33, 340, 150
734, 339, 341, 338, 406
735, 341, 340, 338, 404
736, 341, 404, 338, 406
737, 406, 341, 404, 410
738, 404, 341, 340, 408
739, 408, 404, 341, 410
740, 340, 150, 152, 153
741, 153, 151, 152, 339
742, 338, 341, 339, 153
743, 153, 341, 339, 152
744, 152, 153, 341, 340
745, 340, 153, 341, 338
746, 127, 338, 336, 104
747, 105, 127, 124, 336
748, 400, 124, 127, 336
749, 396, 334, 332, 123
750, 123, 105, 124, 336
751, 404, 127, 336, 400
752, 104, 34, 153, 35
753, 104, 105, 35, 336
754, 104, 153, 338, 336
755, 336, 104, 153, 35
756, 35, 153, 336, 154
757, 400, 406, 402, 337
758, 406, 339, 337, 336
759, 406, 336, 337, 400
760, 400, 406, 336, 404
761, 336, 406, 339, 338
762, 338, 336, 406, 404
763, 339, 153, 151, 156
764, 336, 339, 337, 156
765, 336, 338, 339, 153
766, 153, 339, 336, 156
767, 156, 336, 153, 154
768, 334, 336, 106, 123
769, 106, 105, 123, 336
770, 400, 123, 124, 336
771, 107, 106, 123, 332
772, 305, 299, 303, 304
773, 396, 336, 123, 400
774, 157, 36, 106, 35
775, 106, 336, 334, 157
776, 105, 106, 35, 336
777, 336, 106, 35, 157
778, 157, 35, 336, 154
779, 335, 337, 334, 398
780, 337, 336, 334, 396
781, 337, 396, 334, 398
782, 398, 337, 396, 402
783, 396, 337, 336, 400
784, 400, 396, 337, 402
785, 336, 154, 156, 157
786, 157, 155, 156, 335
787, 334, 337, 335, 157
788, 157, 337, 335, 156
789, 156, 157, 337, 336
790, 336, 157, 337, 334
791, 123, 334, 332, 106
792, 107, 123, 120, 332
793, 390, 120, 123, 332
794, 388, 330, 328, 119
795, 119, 107, 120, 332
796, 396, 123, 332, 390
797, 106, 36, 157, 37
798, 106, 107, 37, 332
799, 106, 157, 334, 332
800, 332, 106, 157, 37
801, 37, 157, 332, 158
802, 390, 398, 392, 333
803, 398, 335, 333, 332
804, 398, 332, 333, 390
805, 390, 398, 332, 396
806, 332, 398, 335, 334
807, 334, 332, 398, 396
808, 335, 157, 155, 160
809, 332, 335, 333, 160
810, 332, 334, 335, 157
811, 157, 335, 332, 160
812, 160, 332, 157, 158
813, 330, 332, 108, 119
814, 108, 107, 119, 332
815, 390, 119, 120, 332
816, 109, 108, 119, 328
817, 345, 306, 307, 148
818, 388, 332, 119, 390
819, 161, 38, 108, 37
820, 108, 332, 330, 161
821, 107, 108, 37, 332
822, 332, 108, 37, 161
823, 161, 37, 332, 158
824, 331, 333, 330, 394
825, 333, 332, 330, 388
826, 333, 388, 330, 394
827, 394, 333, 388, 392
828, 388, 333, 332, 390
829, 390, 388, 333, 392
830, 332, 158, 160, 161
831, 161, 159, 160, 331
832, 330, 333, 331, 161
833, 161, 333, 331, 160
834, 160, 161, 333, 332
835, 332, 161, 333, 330
836, 119, 330, 328, 108
837, 109, 119, 116, 328
838, 384, 116, 119, 328
839, 109, 116, 115, 328
840, 179, 180, 144, 306
841, 388, 119, 328, 384
842, 108, 38, 161, 39
843, 108, 109, 39, 328
844, 108, 161, 330, 328
845, 328, 108, 161, 39
846, 39, 161, 328, 162
847, 384, 394, 380, 329
848, 394, 331, 329, 328
849, 394, 328, 329, 384
850, 384, 394, 328, 388
851, 328, 394, 331, 330
852, 330, 328, 394, 388
853, 331, 161, 159, 164
854, 328, 331, 329, 164
855, 328, 330, 331, 161
856, 161, 331, 328, 164
857, 164, 328, 161, 162
858, 115, 386, 326, 328
859, 109, 115, 110, 328
860, 384, 115, 116, 328
861, 303, 299, 305, 180
862, 284, 290, 44, 323
863, 386, 328, 115, 384
864, 110, 165, 40, 39
865, 165, 110, 326, 328
866, 109, 110, 39, 328
867, 328, 110, 39, 165
868, 165, 39, 328, 162
869, 327, 326, 386, 328
870, 382, 386, 380, 329
871, 327, 386, 382, 329
872, 135, 99, 136, 348
873, 386, 329, 327, 328
874, 328, 386, 329, 384
875, 327, 163, 165, 164
876, 327, 328, 329, 164
877, 327, 165, 326, 328
878, 328, 327, 165, 164
879, 164, 165, 328, 162
880, 305, 301, 299, 304
881, 303, 302, 304, 298
882, 298, 300, 304, 301
883, 301, 304, 298, 299
884, 341, 308, 309, 152
885, 301, 139, 181, 180
886, 299, 301, 305, 180
887, 180, 144, 303, 299
888, 148, 179, 143, 306
889, 301, 180, 299, 139
890, 139, 180, 299, 144
891, 301, 184, 225, 185
892, 301, 304, 305, 185
893, 304, 301, 300, 225
894, 225, 304, 301, 185
895, 185, 225, 304, 222
896, 50, 180, 185, 49
897, 180, 301, 305, 185
898, 185, 184, 49, 301
899, 301, 49, 185, 180
900, 180, 301, 49, 181
901, 358, 422, 304, 306
902, 347, 422, 306, 303
903, 305, 303, 306, 304
904, 304, 303, 306, 422
905, 422, 304, 303, 302
906, 306, 303, 305, 180
907, 179, 144, 143, 306
908, 347, 143, 144, 306
909, 308, 345, 307, 148
910, 180, 144, 306, 303
911, 303, 144, 306, 347
912, 304, 185, 222, 221
913, 306, 304, 358, 221
914, 306, 305, 304, 185
915, 185, 304, 306, 221
916, 221, 306, 185, 186
917, 185, 180, 50, 51
918, 186, 185, 51, 306
919, 180, 185, 305, 306
920, 306, 180, 185, 51
921, 51, 306, 180, 179
922, 307, 306, 345, 360
923, 345, 418, 360, 422
924, 422, 358, 360, 306
925, 306, 360, 422, 345
926, 345, 422, 306, 347
927, 148, 306, 307, 178
928, 178, 179, 148, 306
929, 347, 148, 143, 306
930, 177, 178, 148, 308
931, 337, 310, 311, 156
932, 345, 306, 148, 347
933, 306, 186, 221, 187
934, 306, 360, 307, 187
935, 360, 306, 358, 221
936, 221, 360, 306, 187
937, 187, 221, 360, 218
938, 52, 178, 187, 51
939, 178, 306, 307, 187
940, 187, 186, 51, 306
941, 306, 51, 187, 178
942, 178, 306, 51, 179
943, 362, 414, 360, 308
944, 343, 414, 308, 345
945, 307, 345, 308, 360
946, 360, 345, 308, 414
947, 414, 360, 345, 418
948, 308, 148, 307, 178
949, 177, 148, 147, 308
950, 343, 147, 148, 308
951, 310, 341, 309, 152
952, 152, 177, 147, 308
953, 345, 148, 308, 343
954, 360, 187, 218, 217
955, 308, 360, 362, 217
956, 308, 307, 360, 187
957, 187, 360, 308, 217
958, 217, 308, 187, 188
959, 187, 178, 52, 53
960, 188, 187, 53, 308
961, 178, 187, 307, 308
962, 308, 178, 187, 53
963, 53, 308, 178, 177
964, 309, 308, 341, 364
965, 341, 410, 364, 414
966, 414, 362, 364, 308
967, 308, 364, 414, 341
968, 341, 414, 308, 343
969, 152, 308, 309, 176
970, 176, 177, 152, 308
971, 343, 152, 147, 308
972, 175, 176, 152, 310
973, 333, 312, 313, 160
974, 341, 308, 152, 343
975, 308, 188, 217, 189
976, 308, 364, 309, 189
977, 364, 308, 362, 217
978, 217, 364, 308, 189
979, 189, 217, 364, 214
980, 54, 176, 189, 53
981, 176, 308, 309, 189
982, 189, 188, 53, 308
983, 308, 53, 189, 176
984, 176, 308, 53, 177
985, 366, 406, 364, 310
986, 339, 406, 310, 341
987, 309, 341, 310, 364
988, 364, 341, 310, 406
989, 406, 364, 341, 410
990, 310, 152, 309, 176
991, 175, 152, 151, 310
992, 339, 151, 152, 310
993, 312, 337, 311, 156
994, 156, 175, 151, 310
995, 341, 152, 310, 339
996, 364, 189, 214, 213
997, 310, 364, 366, 213
998, 310, 309, 364, 189
999, 189, 364, 310, 213
1000, 213, 310, 189, 190
1001, 189, 176, 54, 55
1002, 190, 189, 55, 310
1003, 176, 189, 309, 310
1004, 310, 176, 189, 55
1005, 55, 310, 176, 175
1006, 311, 310, 337, 368
1007, 337, 402, 368, 406
1008, 406, 366, 368, 310
1009, 310, 368, 406, 337
1010, 337, 406, 310, 339
1011, 156, 310, 311, 174
1012, 174, 175, 156, 310
1013, 339, 156, 151, 310
1014, 173, 174, 156, 312
1015, 225, 223, 224, 356
1016, 337, 310, 156, 339
1017, 310, 190, 213, 191
1018, 310, 368, 311, 191
1019, 368, 310, 366, 213
1020, 213, 368, 310, 191
1021, 191, 213, 368, 210
1022, 56, 174, 191, 55
1023, 174, 310, 311, 191
1024, 191, 190, 55, 310
1025, 310, 55, 191, 174
1026, 174, 310, 55, 175
1027, 370, 398, 368, 312
1028, 335, 398, 312, 337
1029, 311, 337, 312, 368
1030, 368, 337, 312, 398
1031, 398, 368, 337, 402
1032, 312, 156, 311, 174
1033, 173, 156, 155, 312
1034, 335, 155, 156, 312
1035, 314, 333, 313, 160
1036, 160, 173, 155, 312
1037, 337, 156, 312, 335
1038, 368, 191, 210, 209
1039, 312, 368, 370, 209
1040, 312, 311, 368, 191
1041, 191, 368, 312, 209
1042, 209, 312, 191, 192
1043, 191, 174, 56, 57
1044, 192, 191, 57, 312
1045, 174, 191, 311, 312
1046, 312, 174, 191, 57
1047, 57, 312, 174, 173
1048, 313, 312, 333, 372
1049, 333, 392, 372, 398
1050, 398, 370, 372, 312
1051, 312, 372, 398, 333
1052, 333, 398, 312, 335
1053, 160, 312, 313, 172
1054, 172, 173, 160, 312
1055, 335, 160, 155, 312
1056, 171, 172, 160, 314
1057, 327, 329, 315, 170
1058, 333, 312, 160, 335
1059, 312, 192, 209, 193
1060, 312, 372, 313, 193
1061, 372, 312, 370, 209
1062, 209, 372, 312, 193
1063, 193, 209, 372, 206
1064, 58, 172, 193, 57
1065, 172, 312, 313, 193
1066, 193, 192, 57, 312
1067, 312, 57, 193, 172
1068, 172, 312, 57, 173
1069, 374, 394, 372, 314
1070, 331, 394, 314, 333
1071, 313, 333, 314, 372
1072, 372, 333, 314, 394
1073, 394, 372, 333, 392
1074, 314, 160, 313, 172
1075, 171, 160, 159, 314
1076, 331, 159, 160, 314
1077, 164, 171, 159, 314
1078, 315, 329, 327, 376
1079, 333, 160, 314, 331
1080, 372, 193, 206, 205
1081, 314, 372, 374, 205
1082, 314, 313, 372, 193
1083, 193, 372, 314, 205
1084, 205, 314, 193, 194
1085, 193, 172, 58, 59
1086, 194, 193, 59, 314
1087, 172, 193, 313, 314
1088, 314, 172, 193, 59
1089, 59, 314, 172, 171
1090, 315, 314, 329, 376
1091, 329, 380, 376, 394
1092, 394, 374, 376, 314
1093, 314, 376, 394, 329
1094, 329, 394, 314, 331
1095, 329, 314, 315, 170
1096, 170, 171, 164, 314
1097, 331, 164, 159, 314
1098, 421, 356, 357, 422
1099, 170, 314, 164, 329
1100, 329, 314, 164, 331
1101, 314, 194, 205, 195
1102, 314, 376, 315, 195
1103, 376, 314, 374, 205
1104, 205, 376, 314, 195
1105, 195, 205, 376, 202
1106, 60, 170, 195, 59
1107, 170, 314, 315, 195
1108, 195, 194, 59, 314
1109, 314, 59, 195, 170
1110, 170, 314, 59, 171
1111, 316, 382, 378, 376
1112, 358, 356, 357, 221
1113, 315, 327, 316, 376
1114, 376, 327, 316, 382
1115, 382, 376, 329, 380
1116, 316, 169, 163, 170
1117, 316, 327, 315, 170
1118, 329, 164, 170, 327
1119, 359, 358, 357, 221
1120, 316, 327, 170, 163
1121, 163, 327, 170, 164
1122, 316, 201, 196, 195
1123, 316, 315, 376, 195
1124, 201, 316, 378, 376
1125, 376, 201, 316, 195
1126, 195, 376, 201, 202
1127, 195, 170, 60, 61
1128, 170, 195, 315, 316
1129, 196, 195, 61, 316
1130, 316, 195, 61, 170
1131, 170, 61, 316, 169
1132, 297, 229, 270, 267
1133, 297, 267, 424, 356
1134, 355, 297, 356, 229
1135, 229, 297, 356, 267
1136, 267, 356, 229, 230
1137, 302, 424, 356, 297
1138, 356, 298, 355, 300
1139, 304, 298, 302, 356
1140, 356, 298, 302, 297
1141, 298, 356, 304, 300
1142, 420, 421, 425, 423
1143, 224, 70, 229, 71
1144, 224, 223, 71, 356
1145, 224, 229, 355, 356
1146, 356, 224, 229, 71
1147, 71, 229, 356, 230
1148, 356, 300, 355, 224
1149, 222, 223, 225, 356
1150, 304, 222, 225, 356
1151, 359, 421, 357, 422
1152, 224, 225, 356, 300
1153, 300, 225, 356, 304
1154, 421, 267, 266, 231
1155, 357, 356, 421, 231
1156, 356, 424, 421, 267
1157, 267, 421, 356, 231
1158, 231, 356, 267, 230
1159, 422, 356, 357, 358
1160, 421, 302, 424, 356
1161, 422, 304, 302, 356
1162, 422, 356, 302, 421
1163, 413, 359, 361, 414
1164, 358, 422, 356, 304
1165, 231, 72, 220, 71
1166, 356, 231, 357, 220
1167, 223, 220, 71, 356
1168, 356, 220, 71, 231
1169, 231, 71, 356, 230
1170, 221, 356, 357, 220
1171, 220, 223, 221, 356
1172, 304, 221, 222, 356
1173, 219, 220, 221, 359
1174, 362, 359, 361, 217
1175, 358, 356, 221, 304
1176, 421, 266, 263, 231
1177, 421, 263, 417, 359
1178, 357, 421, 359, 231
1179, 231, 421, 359, 263
1180, 263, 359, 231, 232
1181, 418, 417, 359, 421
1182, 359, 422, 357, 358
1183, 360, 422, 418, 359
1184, 359, 422, 418, 421
1185, 422, 359, 360, 358
1186, 221, 223, 222, 356
1187, 220, 72, 231, 73
1188, 220, 219, 73, 359
1189, 220, 231, 357, 359
1190, 359, 220, 231, 73
1191, 73, 231, 359, 232
1192, 359, 221, 357, 220
1193, 219, 221, 218, 359
1194, 360, 218, 221, 359
1195, 363, 413, 361, 414
1196, 363, 362, 361, 217
1197, 358, 221, 359, 360
1198, 413, 263, 262, 233
1199, 361, 359, 413, 233
1200, 359, 417, 413, 263
1201, 263, 413, 359, 233
1202, 233, 359, 263, 232
1203, 414, 359, 361, 362
1204, 413, 418, 417, 359
1205, 414, 360, 418, 359
1206, 414, 359, 418, 413
1207, 405, 363, 365, 406
1208, 362, 414, 359, 360
1209, 233, 74, 216, 73
1210, 359, 233, 361, 216
1211, 219, 216, 73, 359
1212, 359, 216, 73, 233
1213, 233, 73, 359, 232
1214, 217, 359, 361, 216
1215, 216, 219, 217, 359
1216, 360, 217, 218, 359
1217, 215, 216, 217, 363
1218, 366, 363, 365, 213
1219, 362, 359, 217, 360
1220, 413, 262, 259, 233
1221, 413, 259, 409, 363
1222, 361, 413, 363, 233
1223, 233, 413, 363, 259
1224, 259, 363, 233, 234
1225, 410, 409, 363, 413
1226, 363, 414, 361, 362
1227, 364, 414, 410, 363
1228, 363, 414, 410, 413
1229, 414, 363, 364, 362
1230, 217, 219, 218, 359
1231, 216, 74, 233, 75
1232, 216, 215, 75, 363
1233, 216, 233, 361, 363
1234, 363, 216, 233, 75
1235, 75, 233, 363, 234
1236, 363, 217, 361, 216
1237, 215, 217, 214, 363
1238, 364, 214, 217, 363
1239, 367, 405, 365, 406
1240, 367, 366, 365, 213
1241, 362, 217, 363, 364
1242, 405, 259, 258, 235
1243, 365, 363, 405, 235
1244, 363, 409, 405, 259
1245, 259, 405, 363, 235
1246, 235, 363, 259, 234
1247, 406, 363, 365, 366
1248, 405, 410, 409, 363
1249, 406, 364, 410, 363
1250, 406, 363, 410, 405
1251, 397, 367, 369, 398
1252, 366, 406, 363, 364
1253, 235, 76, 212, 75
1254, 363, 235, 365, 212
1255, 215, 212, 75, 363
1256, 363, 212, 75, 235
1257, 235, 75, 363, 234
1258, 213, 363, 365, 212
1259, 212, 215, 213, 363
1260, 364, 213, 214, 363
1261, 211, 212, 213, 367
1262, 370, 367, 369, 209
1263, 366, 363, 213, 364
1264, 405, 258, 255, 235
1265, 405, 255, 401, 367
1266, 365, 405, 367, 235
1267, 235, 405, 367, 255
1268, 255, 367, 235, 236
1269, 402, 401, 367, 405
1270, 367, 406, 365, 366
1271, 368, 406, 402, 367
1272, 367, 406, 402, 405
1273, 406, 367, 368, 366
1274, 213, 215, 214, 363
1275, 212, 76, 235, 77
1276, 212, 211, 77, 367
1277, 212, 235, 365, 367
1278, 367, 212, 235, 77
1279, 77, 235, 367, 236
1280, 367, 213, 365, 212
1281, 211, 213, 210, 367
1282, 368, 210, 213, 367
1283, 371, 397, 369, 398
1284, 371, 370, 369, 209
1285, 366, 213, 367, 368
1286, 397, 255, 254, 237
1287, 369, 367, 397, 237
1288, 367, 401, 397, 255
1289, 255, 397, 367, 237
1290, 237, 367, 255, 236
1291, 398, 367, 369, 370
1292, 397, 402, 401, 367
1293, 398, 368, 402, 367
1294, 398, 367, 402, 397
1295, 393, 371, 373, 394
1296, 370, 398, 367, 368
1297, 237, 78, 208, 77
1298, 367, 237, 369, 208
1299, 211, 208, 77, 367
1300, 367, 208, 77, 237
1301, 237, 77, 367, 236
1302, 209, 367, 369, 208
1303, 208, 211, 209, 367
1304, 368, 209, 210, 367
1305, 207, 208, 209, 371
1306, 374, 371, 373, 205
1307, 370, 367, 209, 368
1308, 397, 254, 251, 237
1309, 397, 251, 391, 371
1310, 369, 397, 371, 237
1311, 237, 397, 371, 251
1312, 251, 371, 237, 238
1313, 392, 391, 371, 397
1314, 371, 398, 369, 370
1315, 372, 398, 392, 371
1316, 371, 398, 392, 397
1317, 398, 371, 372, 370
1318, 209, 211, 210, 367
1319, 208, 78, 237, 79
1320, 208, 207, 79, 371
1321, 208, 237, 369, 371
1322, 371, 208, 237, 79
1323, 79, 237, 371, 238
1324, 371, 209, 369, 208
1325, 207, 209, 206, 371
1326, 372, 206, 209, 371
1327, 375, 393, 373, 394
1328, 375, 374, 373, 205
1329, 370, 209, 371, 372
1330, 393, 251, 250, 239
1331, 373, 371, 393, 239
1332, 371, 391, 393, 251
1333, 251, 393, 371, 239
1334, 239, 371, 251, 238
1335, 394, 371, 373, 374
1336, 393, 392, 391, 371
1337, 394, 372, 392, 371
1338, 394, 371, 392, 393
1339, 298, 353, 355, 300
1340, 374, 394, 371, 372
1341, 239, 80, 204, 79
1342, 371, 239, 373, 204
1343, 207, 204, 79, 371
1344, 371, 204, 79, 239
1345, 239, 79, 371, 238
1346, 205, 371, 373, 204
1347, 204, 207, 205, 371
1348, 372, 205, 206, 371
1349, 203, 204, 205, 375
1350, 292, 278, 291, 280
1351, 374, 371, 205, 372
1352, 393, 250, 247, 239
1353, 393, 247, 379, 375
1354, 373, 393, 375, 239
1355, 239, 393, 375, 247
1356, 247, 375, 239, 240
1357, 380, 379, 375, 393
1358, 375, 394, 373, 374
1359, 376, 394, 380, 375
1360, 375, 394, 380, 393
1361, 394, 375, 376, 374
1362, 205, 207, 206, 371
1363, 204, 80, 239, 81
1364, 204, 203, 81, 375
1365, 204, 239, 373, 375
1366, 375, 204, 239, 81
1367, 81, 239, 375, 240
1368, 375, 205, 373, 204
1369, 203, 205, 202, 375
1370, 376, 202, 205, 375
1371, 203, 202, 201, 375
1372, 291, 25, 278, 292
1373, 374, 205, 375, 376
1374, 381, 246, 241, 247
1375, 381, 241, 377, 375
1376, 375, 379, 381, 247
1377, 247, 381, 375, 241
1378, 241, 375, 247, 240
1379, 382, 377, 378, 376
1380, 381, 380, 379, 375
1381, 375, 376, 377, 381
1382, 381, 376, 377, 382
1383, 376, 381, 375, 380
1384, 380, 376, 381, 382
1385, 200, 241, 82, 81
1386, 241, 200, 377, 375
1387, 203, 200, 81, 375
1388, 375, 200, 81, 241
1389, 241, 81, 375, 240
1390, 377, 201, 378, 376
1391, 203, 201, 200, 375
1392, 377, 200, 201, 375
1393, 300, 353, 355, 224
1394, 202, 201, 375, 376
1395, 376, 201, 375, 377
1396, 297, 291, 293, 292
1397, 291, 280, 293, 292
1398, 93, 96, 25, 291
1399, 291, 93, 96, 94
1400, 289, 290, 284, 325
1401, 279, 353, 351, 276
1402, 299, 304, 298, 303
1403, 376, 329, 327, 382
*ELSET, ELSET="Solid Section1-1"
1, 2, 3, 4, 5, 6, 7, 8, 9, 10, 11, 12, 13, 14, 15, 16
17, 18, 19, 20, 21, 22, 23, 24, 25, 26, 27, 28, 29, 30, 31, 32
33, 34, 35, 36, 37, 38, 39, 40, 41, 42, 43, 44, 45, 46, 47, 48
49, 50, 51, 52, 53, 54, 55, 56, 57, 58, 59, 60, 61, 62, 63, 64
65, 66, 67, 68, 69, 70, 71, 72, 73, 74, 75, 76, 77, 78, 79, 80
81, 82, 83, 84, 85, 86, 87, 88, 89, 90, 91, 92, 93, 94, 95, 96
97, 98, 99, 100, 101, 102, 103, 104, 105, 106, 107, 108, 109, 110, 111, 112
113, 114, 115, 116, 117, 118, 119, 120, 121, 122, 123, 124, 125, 126, 127, 128
129, 130, 131, 132, 133, 134, 135, 136, 137, 138, 139, 140, 141, 142, 143, 144
145, 146, 147, 148, 149, 150, 151, 152, 153, 154, 155, 156, 157, 158, 159, 160
161, 162, 163, 164, 165, 166, 167, 168, 169, 170, 171, 172, 173, 174, 175, 176
177, 178, 179, 180, 181, 182, 183, 184, 185, 186, 187, 188, 189, 190, 191, 192
193, 194, 195, 196, 197, 198, 199, 200, 201, 202, 203, 204, 205, 206, 207, 208
209, 210, 211, 212, 213, 214, 215, 216, 217, 218, 219, 220, 221, 222, 223, 224
225, 226, 227, 228, 229, 230, 231, 232, 233, 234, 235, 236, 237, 238, 239, 240
241, 242, 243, 244, 245, 246, 247, 248, 249, 250, 251, 252, 253, 254, 255, 256
257, 258, 259, 260, 261, 262, 263, 264, 265, 266, 267, 268, 269, 270, 271, 272
273, 274, 275, 276, 277, 278, 279, 280, 281, 282, 283, 284, 285, 286, 287, 288
289, 290, 291, 292, 293, 294, 295, 296, 297, 298, 299, 300, 301, 302, 303, 304
305, 306, 307, 308, 309, 310, 311, 312, 313, 314, 315, 316, 317, 318, 319, 320
321, 322, 323, 324, 325, 326, 327, 328, 329, 330, 331, 332, 333, 334, 335, 336
337, 338, 339, 340, 341, 342, 343, 344, 345, 346, 347, 348, 349, 350, 351, 352
353, 354, 355, 356, 357, 358, 359, 360, 361, 362, 363, 364, 365, 366, 367, 368
369, 370, 371, 372, 373, 374, 375, 376, 377, 378, 379, 380, 381, 382, 383, 384
385, 386, 387, 388, 389, 390, 391, 392, 393, 394, 395, 396, 397, 398, 399, 400
401, 402, 403, 404, 405, 406, 407, 408, 409, 410, 411, 412, 413, 414, 415, 416
417, 418, 419, 420, 421, 422, 423, 424, 425, 426, 427, 428, 429, 430, 431, 432
433, 434, 435, 436, 437, 438, 439, 440, 441, 442, 443, 444, 445, 446, 447, 448
449, 450, 451, 452, 453, 454, 455, 456, 457, 458, 459, 460, 461, 462, 463, 464
465, 466, 467, 468, 469, 470, 471, 472, 473, 474, 475, 476, 477, 478, 479, 480
481, 482, 483, 484, 485, 486, 487, 488, 489, 490, 491, 492, 493, 494, 495, 496
497, 498, 499, 500, 501, 502, 503, 504, 505, 506, 507, 508, 509, 510, 511, 512
513, 514, 515, 516, 517, 518, 519, 520, 521, 522, 523, 524, 525, 526, 527, 528
529, 530, 531, 532, 533, 534, 535, 536, 537, 538, 539, 540, 541, 542, 543, 544
545, 546, 547, 548, 549, 550, 551, 552, 553, 554, 555, 556, 557, 558, 559, 560
561, 562, 563, 564, 565, 566, 567, 568, 569, 570, 571, 572, 573, 574, 575, 576
577, 578, 579, 580, 581, 582, 583, 584, 585, 586, 587, 588, 589, 590, 591, 592
593, 594, 595, 596, 597, 598, 599, 600, 601, 602, 603, 604, 605, 606, 607, 608
609, 610, 611, 612, 613, 614, 615, 616, 617, 618, 619, 620, 621, 622, 623, 624
625, 626, 627, 628, 629, 630, 631, 632, 633, 634, 635, 636, 637, 638, 639, 640
641, 642, 643, 644, 645, 646, 647, 648, 649, 650, 651, 652, 653, 654, 655, 656
657, 658, 659, 660, 661, 662, 663, 664, 665, 666, 667, 668, 669, 670, 671, 672
673, 674, 675, 676, 677, 678, 679, 680, 681, 682, 683, 684, 685, 686, 687, 688
689, 690, 691, 692, 693, 694, 695, 696, 697, 698, 699, 700, 701, 702, 703, 704
705, 706, 707, 708, 709, 710, 711, 712, 713, 714, 715, 716, 717, 718, 719, 720
721, 722, 723, 724, 725, 726, 727, 728, 729, 730, 731, 732, 733, 734, 735, 736
737, 738, 739, 740, 741, 742, 743, 744, 745, 746, 747, 748, 749, 750, 751, 752
753, 754, 755, 756, 757, 758, 759, 760, 761, 762, 763, 764, 765, 766, 767, 768
769, 770, 771, 772, 773, 774, 775, 776, 777, 778, 779, 780, 781, 782, 783, 784
785, 786, 787, 788, 789, 790, 791, 792, 793, 794, 795, 796, 797, 798, 799, 800
801, 802, 803, 804, 805, 806, 807, 808, 809, 810, 811, 812, 813, 814, 815, 816
817, 818, 819, 820, 821, 822, 823, 824, 825, 826, 827, 828, 829, 830, 831, 832
833, 834, 835, 836, 837, 838, 839, 840, 841, 842, 843, 844, 845, 846, 847, 848
849, 850, 851, 852, 853, 854, 855, 856, 857, 858, 859, 860, 861, 862, 863, 864
865, 866, 867, 868, 869, 870, 871, 872, 873, 874, 875, 876, 877, 878, 879, 880
881, 882, 883, 884, 885, 886, 887, 888, 889, 890, 891, 892, 893, 894, 895, 896
897, 898, 899, 900, 901, 902, 903, 904, 905, 906, 907, 908, 909, 910, 911, 912
913, 914, 915, 916, 917, 918, 919, 920, 921, 922, 923, 924, 925, 926, 927, 928
929, 930, 931, 932, 933, 934, 935, 936, 937, 938, 939, 940, 941, 942, 943, 944
945, 946, 947, 948, 949, 950, 951, 952, 953, 954, 955, 956, 957, 958, 959, 960
961, 962, 963, 964, 965, 966, 967, 968, 969, 970, 971, 972, 973, 974, 975, 976
977, 978, 979, 980, 981, 982, 983, 984, 985, 986, 987, 988, 989, 990, 991, 992
993, 994, 995, 996, 997, 998, 999, 1000, 1001, 1002, 1003, 1004, 1005, 1006, 1007, 1008
1009, 1010, 1011, 1012, 1013, 1014, 1015, 1016, 1017, 1018, 1019, 1020, 1021, 1022, 1023, 1024
1025, 1026, 1027, 1028, 1029, 1030, 1031, 1032, 1033, 1034, 1035, 1036, 1037, 1038, 1039, 1040
1041, 1042, 1043, 1044, 1045, 1046, 1047, 1048, 1049, 1050, 1051, 1052, 1053, 1054, 1055, 1056
1057, 1058, 1059, 1060, 1061, 1062, 1063, 1064, 1065, 1066, 1067, 1068, 1069, 1070, 1071, 1072
1073, 1074, 1075, 1076, 1077, 1078, 1079, 1080, 1081, 1082, 1083, 1084, 1085, 1086, 1087, 1088
1089, 1090, 1091, 1092, 1093, 1094, 1095, 1096, 1097, 1098, 1099, 1100, 1101, 1102, 1103, 1104
1105, 1106, 1107, 1108, 1109, 1110, 1111, 1112, 1113, 1114, 1115, 1116, 1117, 1118, 1119, 1120
1121, 1122, 1123, 1124, 1125, 1126, 1127, 1128, 1129, 1130, 1131, 1132, 1133, 1134, 1135, 1136
1137, 1138, 1139, 1140, 1141, 1142, 1143, 1144, 1145, 1146, 1147, 1148, 1149, 1150, 1151, 1152
1153, 1154, 1155, 1156, 1157, 1158, 1159, 1160, 1161, 1162, 1163, 1164, 1165, 1166, 1167, 1168
1169, 1170, 1171, 1172, 1173, 1174, 1175, 1176, 1177, 1178, 1179, 1180, 1181, 1182, 1183, 1184
1185, 1186, 1187, 1188, 1189, 1190, 1191, 1192, 1193, 1194, 1195, 1196, 1197, 1198, 1199, 1200
1201, 1202, 1203, 1204, 1205, 1206, 1207, 1208, 1209, 1210, 1211, 1212, 1213, 1214, 1215, 1216
1217, 1218, 1219, 1220, 1221, 1222, 1223, 1224, 1225, 1226, 1227, 1228, 1229, 1230, 1231, 1232
1233, 1234, 1235, 1236, 1237, 1238, 1239, 1240, 1241, 1242, 1243, 1244, 1245, 1246, 1247, 1248
1249, 1250, 1251, 1252, 1253, 1254, 1255, 1256, 1257, 1258, 1259, 1260, 1261, 1262, 1263, 1264
1265, 1266, 1267, 1268, 1269, 1270, 1271, 1272, 1273, 1274, 1275, 1276, 1277, 1278, 1279, 1280
1281, 1282, 1283, 1284, 1285, 1286, 1287, 1288, 1289, 1290, 1291, 1292, 1293, 1294, 1295, 1296
1297, 1298, 1299, 1300, 1301, 1302, 1303, 1304, 1305, 1306, 1307, 1308, 1309, 1310, 1311, 1312
1313, 1314, 1315, 1316, 1317, 1318, 1319, 1320, 1321, 1322, 1323, 1324, 1325, 1326, 1327, 1328
1329, 1330, 1331, 1332, 1333, 1334, 1335, 1336, 1337, 1338, 1339, 1340, 1341, 1342, 1343, 1344
1345, 1346, 1347, 1348, 1349, 1350, 1351, 1352, 1353, 1354, 1355, 1356, 1357, 1358, 1359, 1360
1361, 1362, 1363, 1364, 1365, 1366, 1367, 1368, 1369, 1370, 1371, 1372, 1373, 1374, 1375, 1376
1377, 1378, 1379, 1380, 1381, 1382, 1383, 1384, 1385, 1386, 1387, 1388, 1389, 1390, 1391, 1392
1393, 1394, 1395, 1396, 1397, 1398, 1399, 1400, 1401, 1402, 1403
*MATERIAL, NAME="FC300 --- SHARED"
*ELASTIC, TYPE=ISOTROPIC
130000000., 0.27
*DENSITY
7.4e-06
*PLASTIC, HARDENING=ISOTROPIC
220594., 0.
*EXPANSION, TYPE=ISOTROPIC, ZERO=0.
1.2e-05
*SOLID SECTION, MATERIAL="FC300 --- SHARED", ELSET="Solid Section1-1"
1.
